
     Program PWSCF v.7.5 starts on 16Jun2026 at  2:53:10 

     This program is part of the open-source Quantum ESPRESSO suite
     for quantum simulation of materials; please cite
         "P. Giannozzi et al., J. Phys.:Condens. Matter 21 395502 (2009);
         "P. Giannozzi et al., J. Phys.:Condens. Matter 29 465901 (2017);
         "P. Giannozzi et al., J. Chem. Phys. 152 154105 (2020);
          URL http://www.quantum-espresso.org", 
     in publications or presentations arising from this work. More details at
     http://www.quantum-espresso.org/quote

     Parallel version (MPI & OpenMP), running on       6 processor cores
     Number of MPI processes:                 6
     Threads/MPI process:                     1

     MPI processes distributed on     1 nodes
     10611 MiB available memory on the printing compute node when the environment starts

     Reading input from scf.in

     Current dimensions of program PWSCF are:
     Max number of different atomic species (ntypx) = 10
     Max number of k-points (npk) =  40000
     Max angular momentum in pseudopotentials (lmaxx) =  4

     R & G space division:  proc/nbgrp/npool/nimage =       6
     Subspace diagonalization in iterative solution of the eigenvalue problem:
     a serial algorithm will be used


     Parallelization info
     --------------------
     sticks:   dense  smooth     PW     G-vecs:    dense   smooth      PW
     Min         413     413    114                13347    13347    1990
     Max         414     414    115                13348    13348    1991
     Sum        2479    2479    685                80083    80083   11941

     Using Slab Decomposition



     bravais-lattice index     =            4
     lattice parameter (alat)  =       9.9760  a.u.
     unit-cell volume          =     693.6907 (a.u.)^3
     number of atoms/cell      =            6
     number of atomic types    =            2
     number of electrons       =        93.00
     number of Kohn-Sham states=           56
     kinetic-energy cutoff     =      90.0000  Ry
     charge density cutoff     =     360.0000  Ry
     scf convergence threshold =      1.0E-10
     mixing beta               =       0.4000
     number of iterations used =            8  plain     mixing
     Exchange-correlation= PBE
                           (   1   4   3   4   0   0   0)

     celldm(1)=   9.976000  celldm(2)=   0.000000  celldm(3)=   0.806800
     celldm(4)=   0.000000  celldm(5)=   0.000000  celldm(6)=   0.000000

     crystal axes: (cart. coord. in units of alat)
               a(1) = (   1.000000   0.000000   0.000000 )  
               a(2) = (  -0.500000   0.866025   0.000000 )  
               a(3) = (   0.000000   0.000000   0.806800 )  

     reciprocal axes: (cart. coord. in units 2 pi/alat)
               b(1) = (  1.000000  0.577350 -0.000000 )  
               b(2) = (  0.000000  1.154701  0.000000 )  
               b(3) = (  0.000000 -0.000000  1.239465 )  


     PseudoPot. # 1 for Co read from file:
     ./pseudo/Co_ONCV_PBE_sr.upf
     MD5 check sum: 04640e31e65e5bce9f0417487be359f7
     Pseudo is Norm-conserving, Zval = 17.0
     Generated using ONCVPSP code by D. R. Hamann
     Using radial grid of  602 points,  6 beta functions with: 
                l(1) =   0
                l(2) =   0
                l(3) =   1
                l(4) =   1
                l(5) =   2
                l(6) =   2

     PseudoPot. # 2 for Sn read from file:
     ./pseudo/Sn_ONCV_PBE_sr.upf
     MD5 check sum: 6680f7ee4d83b53e0fcd4167fcb72813
     Pseudo is Norm-conserving, Zval = 14.0
     Generated using ONCVPSP code by D. R. Hamann
     Using radial grid of  602 points,  6 beta functions with: 
                l(1) =   0
                l(2) =   0
                l(3) =   1
                l(4) =   1
                l(5) =   2
                l(6) =   2

     atomic species   valence    mass     pseudopotential
     Co               17.00    58.93300     Co( 1.00)
     Sn               14.00   118.71000     Sn( 1.00)

     Starting magnetic structure 
     atomic species   magnetization
     Co              0.300
     Sn              0.000

     24 Sym. Ops., with inversion, found



   Cartesian axes

     site n.     atom                  positions (alat units)
         1        Co     tau(   1) = (   0.5000000   0.0000000   0.0000000  )
         2        Co     tau(   2) = (  -0.2500000   0.4330127   0.0000000  )
         3        Co     tau(   3) = (   0.2500000   0.4330127   0.0000000  )
         4        Sn     tau(   4) = (   0.0000000   0.0000000   0.0000000  )
         5        Sn     tau(   5) = (  -0.0000005   0.5773506   0.4034000  )
         6        Sn     tau(   6) = (   0.5000005   0.2886748   0.4034000  )

     number of k points=   133  Methfessel-Paxton smearing, width (Ry)=  0.0200

     Number of k-points >= 100: set verbosity='high' to print them.

     Dense  grid:    80083 G-vectors     FFT dimensions: (  64,  64,  50)

     Estimated max dynamical RAM per process >     406.45 MB

     Estimated total dynamical RAM >       2.38 GB
     Generating pointlists ...
     new r_m :   0.2046 (alat units)  2.0413 (a.u.) for type    1
     new r_m :   0.2046 (alat units)  2.0413 (a.u.) for type    2

     Initial potential from superposition of free atoms

     starting charge      92.6277, renormalised to      93.0000
     Starting wfcs are random

     total cpu time spent up to now is        7.3 secs

     per-process dynamical memory:   422.0 Mb

     Self-consistent Calculation

     iteration #  1     ecut=    90.00 Ry     beta= 0.40
     Davidson diagonalization with overlap
     ethr =  1.00E-02,  avg # of iterations = 10.9

     total cpu time spent up to now is       80.3 secs

     total energy              =   -1174.54834288 Ry
     estimated scf accuracy    <       1.43526625 Ry

     total magnetization       =     4.56 Bohr mag/cell
     absolute magnetization    =     5.57 Bohr mag/cell

     iteration #  2     ecut=    90.00 Ry     beta= 0.40
     Davidson diagonalization with overlap
     ethr =  1.54E-03,  avg # of iterations =  2.0

     total cpu time spent up to now is      100.0 secs

     total energy              =   -1174.59889492 Ry
     estimated scf accuracy    <       0.98318148 Ry

     total magnetization       =     6.21 Bohr mag/cell
     absolute magnetization    =     6.97 Bohr mag/cell

     iteration #  3     ecut=    90.00 Ry     beta= 0.40
     Davidson diagonalization with overlap
     ethr =  1.06E-03,  avg # of iterations =  2.0

     total cpu time spent up to now is      119.9 secs

     total energy              =   -1174.89711034 Ry
     estimated scf accuracy    <       0.73903804 Ry

     total magnetization       =     3.65 Bohr mag/cell
     absolute magnetization    =     4.69 Bohr mag/cell

     iteration #  4     ecut=    90.00 Ry     beta= 0.40
     Davidson diagonalization with overlap
     ethr =  7.95E-04,  avg # of iterations =  1.6

     total cpu time spent up to now is      138.4 secs

     total energy              =   -1174.97757997 Ry
     estimated scf accuracy    <       0.03378300 Ry

     total magnetization       =     3.49 Bohr mag/cell
     absolute magnetization    =     4.39 Bohr mag/cell

     iteration #  5     ecut=    90.00 Ry     beta= 0.40
     Davidson diagonalization with overlap
     ethr =  3.63E-05,  avg # of iterations =  3.5

     total cpu time spent up to now is      160.4 secs

     total energy              =   -1174.99767163 Ry
     estimated scf accuracy    <       0.01015420 Ry

     total magnetization       =     2.43 Bohr mag/cell
     absolute magnetization    =     3.30 Bohr mag/cell

     iteration #  6     ecut=    90.00 Ry     beta= 0.40
     Davidson diagonalization with overlap
     ethr =  1.09E-05,  avg # of iterations =  2.9

     total cpu time spent up to now is      181.2 secs

     total energy              =   -1174.99693364 Ry
     estimated scf accuracy    <       0.00689288 Ry

     total magnetization       =     1.97 Bohr mag/cell
     absolute magnetization    =     2.76 Bohr mag/cell

     iteration #  7     ecut=    90.00 Ry     beta= 0.40
     Davidson diagonalization with overlap
     ethr =  7.41E-06,  avg # of iterations =  3.5

     total cpu time spent up to now is      206.0 secs

     total energy              =   -1175.01747959 Ry
     estimated scf accuracy    <       0.00512979 Ry

     total magnetization       =     0.58 Bohr mag/cell
     absolute magnetization    =     1.07 Bohr mag/cell

     iteration #  8     ecut=    90.00 Ry     beta= 0.40
     Davidson diagonalization with overlap
     ethr =  5.52E-06,  avg # of iterations =  1.0

     total cpu time spent up to now is      223.6 secs

     total energy              =   -1175.02025978 Ry
     estimated scf accuracy    <       0.00567744 Ry

     total magnetization       =     0.61 Bohr mag/cell
     absolute magnetization    =     1.10 Bohr mag/cell

     iteration #  9     ecut=    90.00 Ry     beta= 0.40
     Davidson diagonalization with overlap
     ethr =  5.52E-06,  avg # of iterations =  2.0

     total cpu time spent up to now is      244.3 secs

     total energy              =   -1175.02268747 Ry
     estimated scf accuracy    <       0.00303149 Ry

     total magnetization       =     0.34 Bohr mag/cell
     absolute magnetization    =     0.59 Bohr mag/cell

     iteration # 10     ecut=    90.00 Ry     beta= 0.40
     Davidson diagonalization with overlap
     ethr =  3.26E-06,  avg # of iterations =  1.6

     total cpu time spent up to now is      262.8 secs

     total energy              =   -1175.02279936 Ry
     estimated scf accuracy    <       0.00061821 Ry

     total magnetization       =     0.33 Bohr mag/cell
     absolute magnetization    =     0.54 Bohr mag/cell

     iteration # 11     ecut=    90.00 Ry     beta= 0.40
     Davidson diagonalization with overlap
     ethr =  6.65E-07,  avg # of iterations =  3.0

     total cpu time spent up to now is      285.4 secs

     total energy              =   -1175.02316728 Ry
     estimated scf accuracy    <       0.00018712 Ry

     total magnetization       =     0.17 Bohr mag/cell
     absolute magnetization    =     0.24 Bohr mag/cell

     iteration # 12     ecut=    90.00 Ry     beta= 0.40
     Davidson diagonalization with overlap
     ethr =  2.01E-07,  avg # of iterations =  3.1

     total cpu time spent up to now is      308.3 secs

     total energy              =   -1175.02352280 Ry
     estimated scf accuracy    <       0.00020779 Ry

     total magnetization       =     0.03 Bohr mag/cell
     absolute magnetization    =     0.10 Bohr mag/cell

     iteration # 13     ecut=    90.00 Ry     beta= 0.40
     Davidson diagonalization with overlap
     ethr =  2.01E-07,  avg # of iterations =  1.0

     total cpu time spent up to now is      326.0 secs

     total energy              =   -1175.02353862 Ry
     estimated scf accuracy    <       0.00011300 Ry

     total magnetization       =     0.06 Bohr mag/cell
     absolute magnetization    =     0.11 Bohr mag/cell

     iteration # 14     ecut=    90.00 Ry     beta= 0.40
     Davidson diagonalization with overlap
     ethr =  1.22E-07,  avg # of iterations =  2.0

     total cpu time spent up to now is      346.2 secs

     total energy              =   -1175.02359671 Ry
     estimated scf accuracy    <       0.00002452 Ry

     total magnetization       =     0.12 Bohr mag/cell
     absolute magnetization    =     0.15 Bohr mag/cell

     iteration # 15     ecut=    90.00 Ry     beta= 0.40
     Davidson diagonalization with overlap
     ethr =  2.64E-08,  avg # of iterations =  2.0

     total cpu time spent up to now is      366.4 secs

     total energy              =   -1175.02360298 Ry
     estimated scf accuracy    <       0.00000163 Ry

     total magnetization       =     0.14 Bohr mag/cell
     absolute magnetization    =     0.17 Bohr mag/cell

     iteration # 16     ecut=    90.00 Ry     beta= 0.40
     Davidson diagonalization with overlap
     ethr =  1.75E-09,  avg # of iterations =  3.2

     total cpu time spent up to now is      390.7 secs

     total energy              =   -1175.02360698 Ry
     estimated scf accuracy    <       0.00000058 Ry

     total magnetization       =     0.12 Bohr mag/cell
     absolute magnetization    =     0.15 Bohr mag/cell

     iteration # 17     ecut=    90.00 Ry     beta= 0.40
     Davidson diagonalization with overlap
     ethr =  6.27E-10,  avg # of iterations =  2.0

     total cpu time spent up to now is      411.7 secs

     total energy              =   -1175.02360740 Ry
     estimated scf accuracy    <       0.00000027 Ry

     total magnetization       =     0.13 Bohr mag/cell
     absolute magnetization    =     0.15 Bohr mag/cell

     iteration # 18     ecut=    90.00 Ry     beta= 0.40
     Davidson diagonalization with overlap
     ethr =  2.91E-10,  avg # of iterations =  2.2

     total cpu time spent up to now is      432.9 secs

     total energy              =   -1175.02360781 Ry
     estimated scf accuracy    <       0.00000016 Ry

     total magnetization       =     0.12 Bohr mag/cell
     absolute magnetization    =     0.15 Bohr mag/cell

     iteration # 19     ecut=    90.00 Ry     beta= 0.40
     Davidson diagonalization with overlap
     ethr =  1.74E-10,  avg # of iterations =  2.0

     total cpu time spent up to now is      453.1 secs

     total energy              =   -1175.02360751 Ry
     estimated scf accuracy    <       0.00000015 Ry

     total magnetization       =     0.12 Bohr mag/cell
     absolute magnetization    =     0.15 Bohr mag/cell

     iteration # 20     ecut=    90.00 Ry     beta= 0.40
     Davidson diagonalization with overlap
     ethr =  1.64E-10,  avg # of iterations =  3.2

     total cpu time spent up to now is      477.2 secs

     total energy              =   -1175.02360820 Ry
     estimated scf accuracy    <       0.00000006 Ry

     total magnetization       =     0.12 Bohr mag/cell
     absolute magnetization    =     0.14 Bohr mag/cell

     iteration # 21     ecut=    90.00 Ry     beta= 0.40
     Davidson diagonalization with overlap
     ethr =  6.27E-11,  avg # of iterations =  3.3

     total cpu time spent up to now is      501.8 secs

     total energy              =   -1175.02360832 Ry
     estimated scf accuracy    <       0.00000004 Ry

     total magnetization       =     0.11 Bohr mag/cell
     absolute magnetization    =     0.13 Bohr mag/cell

     iteration # 22     ecut=    90.00 Ry     beta= 0.40
     Davidson diagonalization with overlap
     ethr =  3.89E-11,  avg # of iterations =  4.0

     total cpu time spent up to now is      528.4 secs

     total energy              =   -1175.02360649 Ry
     estimated scf accuracy    <       0.00000002 Ry

     total magnetization       =     0.11 Bohr mag/cell
     absolute magnetization    =     0.13 Bohr mag/cell

     iteration # 23     ecut=    90.00 Ry     beta= 0.40
     Davidson diagonalization with overlap
     ethr =  2.27E-11,  avg # of iterations =  4.7

     total cpu time spent up to now is      558.6 secs

     total energy              =   -1175.02360896 Ry
     estimated scf accuracy    <          4.9E-09 Ry

     total magnetization       =     0.09 Bohr mag/cell
     absolute magnetization    =     0.11 Bohr mag/cell

     iteration # 24     ecut=    90.00 Ry     beta= 0.40
     Davidson diagonalization with overlap
     ethr =  5.22E-12,  avg # of iterations =  4.0

     total cpu time spent up to now is      585.3 secs

     total energy              =   -1175.02360903 Ry
     estimated scf accuracy    <          5.6E-10 Ry

     total magnetization       =     0.09 Bohr mag/cell
     absolute magnetization    =     0.11 Bohr mag/cell

     iteration # 25     ecut=    90.00 Ry     beta= 0.40
     Davidson diagonalization with overlap
     ethr =  6.04E-13,  avg # of iterations =  3.8

     total cpu time spent up to now is      611.7 secs

     total energy              =   -1175.02360904 Ry
     estimated scf accuracy    <          2.1E-10 Ry

     total magnetization       =     0.09 Bohr mag/cell
     absolute magnetization    =     0.11 Bohr mag/cell

     iteration # 26     ecut=    90.00 Ry     beta= 0.40
     Davidson diagonalization with overlap
     ethr =  2.27E-13,  avg # of iterations =  4.0

     Magnetic moment per site  (integrated on atomic sphere of radius R)
     atom   1 (R=0.205)  charge= 15.9804  magn=  0.0327
     atom   2 (R=0.205)  charge= 15.9804  magn=  0.0327
     atom   3 (R=0.205)  charge= 15.9804  magn=  0.0327
     atom   4 (R=0.205)  charge= 11.1921  magn= -0.0013
     atom   5 (R=0.205)  charge= 11.2460  magn= -0.0007
     atom   6 (R=0.205)  charge= 11.2460  magn= -0.0007

     total cpu time spent up to now is      638.4 secs

     End of self-consistent calculation

     Number of k-points >= 100: set verbosity='high' to print the bands.

     the Fermi energy is    16.6482 ev

!    total energy              =   -1175.02360904 Ry
     estimated scf accuracy    <          4.9E-11 Ry
     smearing contrib. (-TS)   =       0.00401665 Ry
     internal energy E=F+TS    =   -1175.02762569 Ry

     The total energy is F=E-TS. E is the sum of the following terms:
     one-electron contribution =    -589.82466664 Ry
     hartree contribution      =     348.24783929 Ry
     xc contribution           =    -127.39748816 Ry
     ewald contribution        =    -806.05331018 Ry

     total magnetization       =     0.09 Bohr mag/cell
     absolute magnetization    =     0.11 Bohr mag/cell

     convergence has been achieved in  26 iterations

     Forces acting on atoms (cartesian axes, Ry/au):

     atom    1 type  1   force =     0.00000000   -0.00000000    0.00000000
     atom    2 type  1   force =     0.00000000    0.00000000    0.00000000
     atom    3 type  1   force =     0.00000000    0.00000000   -0.00000000
     atom    4 type  2   force =     0.00000000    0.00000000   -0.00000000
     atom    5 type  2   force =    -0.00000000    0.00000000   -0.00000000
     atom    6 type  2   force =     0.00000000    0.00000000    0.00000000

     Total force =     0.000000     Total SCF correction =     0.000000


     Computing stress (Cartesian axis) and pressure

          total   stress  (Ry/bohr**3)                   (kbar)     P=        0.73
   0.00004819   0.00000000   0.00000000            7.09        0.00        0.00
   0.00000000   0.00004819   0.00000000            0.00        7.09        0.00
  -0.00000000   0.00000000  -0.00008147           -0.00        0.00      -11.98


     Writing all to output data dir ./out/cosn.save/ :
     XML data file, charge density, pseudopotentials, collected wavefunctions

     init_run     :      6.97s CPU      7.32s WALL (       1 calls)
     electrons    :    605.60s CPU    631.11s WALL (       1 calls)
     forces       :      2.50s CPU      2.53s WALL (       1 calls)
     stress       :      9.07s CPU      9.15s WALL (       1 calls)

     Called by init_run:
     wfcinit      :      6.76s CPU      7.10s WALL (       1 calls)
     potinit      :      0.03s CPU      0.03s WALL (       1 calls)
     hinit0       :      0.11s CPU      0.11s WALL (       1 calls)

     Called by electrons:
     c_bands      :    543.04s CPU    565.05s WALL (      26 calls)
     sum_band     :     61.90s CPU     65.38s WALL (      26 calls)
     v_of_rho     :      0.51s CPU      0.53s WALL (      27 calls)
     mix_rho      :      0.15s CPU      0.15s WALL (      26 calls)

     Called by c_bands:
     init_us_2    :     13.65s CPU     13.85s WALL (   14630 calls)
     cegterg      :    510.76s CPU    532.63s WALL (    6916 calls)

     Called by *egterg:
     cdiaghg      :     48.08s CPU     48.16s WALL (   27782 calls)
     h_psi        :    354.48s CPU    375.54s WALL (   28048 calls)
     g_psi        :      6.74s CPU      6.75s WALL (   20866 calls)

     Called by h_psi:
     h_psi:calbec :     34.18s CPU     35.46s WALL (   28048 calls)
     vloc_psi     :    287.20s CPU    306.77s WALL (   28048 calls)
                                        0.00s GPU  (   28048 calls)
     add_vuspsi   :     29.96s CPU     30.09s WALL (   28048 calls)

     General routines
     calbec       :     41.09s CPU     42.48s WALL (   32570 calls)
     fft          :      0.18s CPU      0.19s WALL (     522 calls)
     ffts         :      0.01s CPU      0.01s WALL (      52 calls)
     fftw         :    297.83s CPU    317.96s WALL ( 2467918 calls)

     Parallel routines

     PWSCF        :  10m24.57s CPU  10m50.99s WALL


   This run was terminated on:   3: 4: 1  16Jun2026            

=------------------------------------------------------------------------------=
   JOB DONE.
=------------------------------------------------------------------------------=
Note: The following floating-point exceptions are signalling: IEEE_DENORMAL
Note: The following floating-point exceptions are signalling: IEEE_DENORMAL
Note: The following floating-point exceptions are signalling: IEEE_DENORMAL
Note: The following floating-point exceptions are signalling: IEEE_DENORMAL
