
     Program PWSCF v.6.7MaX starts on 15Jun2026 at 16:41:44 

     This program is part of the open-source Quantum ESPRESSO suite
     for quantum simulation of materials; please cite
         "P. Giannozzi et al., J. Phys.:Condens. Matter 21 395502 (2009);
         "P. Giannozzi et al., J. Phys.:Condens. Matter 29 465901 (2017);
          URL http://www.quantum-espresso.org", 
     in publications or presentations arising from this work. More details at
     http://www.quantum-espresso.org/quote

     Parallel version (MPI), running on    32 processors

     MPI processes distributed on     1 nodes
     R & G space division:  proc/nbgrp/npool/nimage =      32
     Reading input from bands.in

     Current dimensions of program PWSCF are:
     Max number of different atomic species (ntypx) = 10
     Max number of k-points (npk) =  40000
     Max angular momentum in pseudopotentials (lmaxx) =  3

     Atomic positions and unit cell read from directory:
     ./out/cosn.save/
     Atomic positions from file used, from input discarded

     Message from routine read_pp_mesh:
     mesh size missing, using the one in header
     Message from routine read_pp_mesh:
     mesh size missing, using the one in header

     Subspace diagonalization in iterative solution of the eigenvalue problem:
     one sub-group per band group will be used
     scalapack distributed-memory algorithm (size of sub-group:  5*  5 procs)


     Parallelization info
     --------------------
     sticks:   dense  smooth     PW     G-vecs:    dense   smooth      PW
     Min          77      77     21                 2501     2501     355
     Max          78      78     22                 2504     2504     359
     Sum        2479    2479    673                80083    80083   11401



     bravais-lattice index     =            4
     lattice parameter (alat)  =       9.9760  a.u.
     unit-cell volume          =     693.6907 (a.u.)^3
     number of atoms/cell      =            6
     number of atomic types    =            2
     number of electrons       =        93.60
     number of Kohn-Sham states=           80
     kinetic-energy cutoff     =      90.0000  Ry
     charge density cutoff     =     360.0000  Ry
     Exchange-correlation= PBE
                           (   1   4   3   4   0   0   0)

     celldm(1)=   9.976000  celldm(2)=   0.000000  celldm(3)=   0.806800
     celldm(4)=   0.000000  celldm(5)=   0.000000  celldm(6)=   0.000000

     crystal axes: (cart. coord. in units of alat)
               a(1) = (   1.000000   0.000000   0.000000 )  
               a(2) = (  -0.500000   0.866025   0.000000 )  
               a(3) = (   0.000000   0.000000   0.806800 )  

     reciprocal axes: (cart. coord. in units 2 pi/alat)
               b(1) = (  1.000000  0.577350 -0.000000 )  
               b(2) = (  0.000000  1.154701  0.000000 )  
               b(3) = (  0.000000 -0.000000  1.239465 )  


     PseudoPot. # 1 for Co read from file:
     ./pseudo/Co_ONCV_PBE_sr.upf
     MD5 check sum: 04640e31e65e5bce9f0417487be359f7
     Pseudo is Norm-conserving, Zval = 17.0
     Generated using ONCVPSP code by D. R. Hamann
     Using radial grid of  602 points,  6 beta functions with: 
                l(1) =   0
                l(2) =   0
                l(3) =   1
                l(4) =   1
                l(5) =   2
                l(6) =   2

     PseudoPot. # 2 for Sn read from file:
     ./pseudo/Sn_ONCV_PBE_sr.upf
     MD5 check sum: 6680f7ee4d83b53e0fcd4167fcb72813
     Pseudo is Norm-conserving, Zval = 14.0
     Generated using ONCVPSP code by D. R. Hamann
     Using radial grid of  602 points,  6 beta functions with: 
                l(1) =   0
                l(2) =   0
                l(3) =   1
                l(4) =   1
                l(5) =   2
                l(6) =   2

     atomic species   valence    mass     pseudopotential
        Co            17.00    58.93300     Co( 1.00)
        Sn            14.00   118.71000     Sn( 1.00)

     Starting magnetic structure 
     atomic species   magnetization
        Co           0.300
        Sn           0.000

     24 Sym. Ops., with inversion, found



   Cartesian axes

     site n.     atom                  positions (alat units)
         1           Co  tau(   1) = (   0.5000000   0.0000000   0.0000000  )
         2           Co  tau(   2) = (  -0.2500000   0.4330127   0.0000000  )
         3           Co  tau(   3) = (   0.2500000   0.4330127   0.0000000  )
         4           Sn  tau(   4) = (   0.0000000   0.0000000   0.0000000  )
         5           Sn  tau(   5) = (  -0.0000005   0.5773506   0.4034000  )
         6           Sn  tau(   6) = (   0.5000005   0.2886748   0.4034000  )

     number of k points=    49  Methfessel-Paxton smearing, width (Ry)=  0.0200
                       cart. coord. in units 2pi/alat
        k(    1) = (   0.0000000   0.0000000   0.0000000), wk =   0.0204082
        k(    2) = (   0.0277750   0.0481077   0.0000000), wk =   0.0204082
        k(    3) = (   0.0555500   0.0962154   0.0000000), wk =   0.0204082
        k(    4) = (   0.0833250   0.1443231   0.0000000), wk =   0.0204082
        k(    5) = (   0.1111000   0.1924308   0.0000000), wk =   0.0204082
        k(    6) = (   0.1388750   0.2405386   0.0000000), wk =   0.0204082
        k(    7) = (   0.1666500   0.2886463   0.0000000), wk =   0.0204082
        k(    8) = (   0.1944250   0.3367540   0.0000000), wk =   0.0204082
        k(    9) = (   0.2222000   0.3848617   0.0000000), wk =   0.0204082
        k(   10) = (   0.2499750   0.4329694   0.0000000), wk =   0.0204082
        k(   11) = (   0.2777500   0.4810771   0.0000000), wk =   0.0204082
        k(   12) = (   0.3055250   0.5291848   0.0000000), wk =   0.0204082
        k(   13) = (   0.3333000   0.5772925   0.0000000), wk =   0.0204082
        k(   14) = (   0.3471917   0.5532411   0.0000000), wk =   0.0204082
        k(   15) = (   0.3610833   0.5291896   0.0000000), wk =   0.0204082
        k(   16) = (   0.3749750   0.5051382   0.0000000), wk =   0.0204082
        k(   17) = (   0.3888667   0.4810867   0.0000000), wk =   0.0204082
        k(   18) = (   0.4027583   0.4570353   0.0000000), wk =   0.0204082
        k(   19) = (   0.4166500   0.4329838   0.0000000), wk =   0.0204082
        k(   20) = (   0.4305417   0.4089324   0.0000000), wk =   0.0204082
        k(   21) = (   0.4444333   0.3848809   0.0000000), wk =   0.0204082
        k(   22) = (   0.4583250   0.3608295   0.0000000), wk =   0.0204082
        k(   23) = (   0.4722167   0.3367780   0.0000000), wk =   0.0204082
        k(   24) = (   0.4861083   0.3127266   0.0000000), wk =   0.0204082
        k(   25) = (   0.5000000   0.2886751   0.0000000), wk =   0.0204082
        k(   26) = (   0.4583333   0.2646189   0.0000000), wk =   0.0204082
        k(   27) = (   0.4166667   0.2405626   0.0000000), wk =   0.0204082
        k(   28) = (   0.3750000   0.2165064   0.0000000), wk =   0.0204082
        k(   29) = (   0.3333333   0.1924501   0.0000000), wk =   0.0204082
        k(   30) = (   0.2916667   0.1683938   0.0000000), wk =   0.0204082
        k(   31) = (   0.2500000   0.1443376   0.0000000), wk =   0.0204082
        k(   32) = (   0.2083333   0.1202813   0.0000000), wk =   0.0204082
        k(   33) = (   0.1666667   0.0962250   0.0000000), wk =   0.0204082
        k(   34) = (   0.1250000   0.0721688   0.0000000), wk =   0.0204082
        k(   35) = (   0.0833333   0.0481125   0.0000000), wk =   0.0204082
        k(   36) = (   0.0416667   0.0240563   0.0000000), wk =   0.0204082
        k(   37) = (   0.0000000   0.0000000   0.0000000), wk =   0.0204082
        k(   38) = (   0.0000000   0.0000000   0.0516444), wk =   0.0204082
        k(   39) = (   0.0000000   0.0000000   0.1032887), wk =   0.0204082
        k(   40) = (   0.0000000   0.0000000   0.1549331), wk =   0.0204082
        k(   41) = (   0.0000000   0.0000000   0.2065774), wk =   0.0204082
        k(   42) = (   0.0000000   0.0000000   0.2582218), wk =   0.0204082
        k(   43) = (   0.0000000   0.0000000   0.3098661), wk =   0.0204082
        k(   44) = (   0.0000000   0.0000000   0.3615105), wk =   0.0204082
        k(   45) = (   0.0000000   0.0000000   0.4131549), wk =   0.0204082
        k(   46) = (   0.0000000   0.0000000   0.4647992), wk =   0.0204082
        k(   47) = (   0.0000000   0.0000000   0.5164436), wk =   0.0204082
        k(   48) = (   0.0000000   0.0000000   0.5680879), wk =   0.0204082
        k(   49) = (   0.0000000   0.0000000   0.6197323), wk =   0.0204082

     Dense  grid:    80083 G-vectors     FFT dimensions: (  64,  64,  50)

     Estimated max dynamical RAM per process >       8.64 MB

     Estimated total dynamical RAM >     276.46 MB
     Generating pointlists ...
     new r_m :   0.2046 (alat units)  2.0413 (a.u.) for type    1
     new r_m :   0.2046 (alat units)  2.0413 (a.u.) for type    2

     The potential is recalculated from file :
     ./out/cosn.save/charge-density

     Starting wfcs are random

     Band Structure Calculation
     Davidson diagonalization with overlap

     ethr =  1.07E-09,  avg # of iterations = 18.9

     total cpu time spent up to now is      103.0 secs

     End of band structure calculation

 ------ SPIN UP ------------


          k = 0.0000 0.0000 0.0000 ( 10021 PWs)   bands (ev):

   -77.5709 -77.5581 -77.5579 -40.9495 -40.8738 -40.8738 -40.8601 -40.8464
   -40.8463 -40.8088 -40.8088 -40.7979  -4.9485  -4.8903  -4.8903  -4.8455
    -4.8455  -4.8296  -4.8087  -4.8087  -4.7723  -4.7723  -4.7180  -4.7180
    -4.7151  -4.7151  -4.6771   5.2928   9.8629  11.4238  12.6452  12.6453
    13.3974  13.7651  14.0122  14.0343  14.0343  14.7566  14.7566  15.2091
    15.2092  16.3302  16.3303  16.3669  16.4065  16.4066  17.2435  17.3187
    18.0739  18.0740  19.4399  20.1112  21.6216  21.6217  22.3955  23.1302
    23.1303  23.3394  25.2402  25.2403  25.4683  26.1256  26.1257  27.6540
    27.6540  28.7752  31.9075  31.9075  32.1379  34.3309  34.4391  34.4391
    35.0562  35.3070  35.3070  36.3934  36.7531  36.7531  37.2962  37.5437

          k = 0.0278 0.0481 0.0000 ( 10021 PWs)   bands (ev):

   -77.5708 -77.5581 -77.5579 -40.9489 -40.8738 -40.8734 -40.8600 -40.8465
   -40.8463 -40.8093 -40.8089 -40.7982  -4.9482  -4.8924  -4.8915  -4.8464
    -4.8462  -4.8310  -4.8076  -4.8071  -4.7703  -4.7698  -4.7177  -4.7174
    -4.7160  -4.7152  -4.6772   5.3101   9.8518  11.2860  12.5980  12.7275
    13.4015  13.7540  14.0145  14.0844  14.0936  14.7564  14.7595  15.1995
    15.2148  16.3310  16.3385  16.3614  16.4046  16.4186  17.2428  17.3554
    18.0828  18.0913  19.4564  20.1048  21.5495  21.6169  22.3450  22.7213
    23.1171  23.7404  25.2653  25.3570  25.5388  26.1689  26.2031  27.4845
    27.6066  28.6403  31.9836  32.0898  32.3267  34.1345  34.2108  34.2492
    34.8890  35.1457  35.2595  36.2810  36.7266  36.9409  37.0718  37.6664

          k = 0.0555 0.0962 0.0000 ( 10003 PWs)   bands (ev):

   -77.5706 -77.5583 -77.5579 -40.9473 -40.8739 -40.8723 -40.8598 -40.8467
   -40.8463 -40.8110 -40.8093 -40.7988  -4.9475  -4.8985  -4.8945  -4.8487
    -4.8480  -4.8342  -4.8049  -4.8030  -4.7649  -4.7638  -4.7186  -4.7167
    -4.7157  -4.7154  -4.6776   5.3617   9.8159  10.9653  12.4823  12.8866
    13.4139  13.7526  14.0209  14.2171  14.2243  14.7559  14.7692  15.1711
    15.2317  16.3323  16.3442  16.3597  16.3987  16.4565  17.2425  17.4561
    18.1162  18.1493  19.5089  20.0830  21.3540  21.5784  22.2294  22.2500
    23.0894  24.2008  25.3072  25.6714  25.7265  26.3065  26.4246  27.0463
    27.4792  28.3845  32.1916  32.3169  32.9748  33.4828  33.6362  33.8278
    34.7793  34.8181  35.1290  35.9353  36.4098  37.0115  37.0762  38.1010

          k = 0.0833 0.1443 0.0000 (  9989 PWs)   bands (ev):

   -77.5703 -77.5586 -77.5579 -40.9446 -40.8740 -40.8705 -40.8594 -40.8470
   -40.8463 -40.8138 -40.8100 -40.7998  -4.9464  -4.9078  -4.8985  -4.8515
    -4.8502  -4.8377  -4.8013  -4.7973  -4.7573  -4.7563  -4.7226  -4.7157
    -4.7150  -4.7129  -4.6782   5.4476   9.7479  10.5733  12.3513  13.0317
    13.4344  13.7802  14.0303  14.3419  14.4178  14.7552  14.7896  15.1253
    15.2595  16.3159  16.3295  16.3871  16.3888  16.5223  17.2470  17.5843
    18.1989  18.2662  19.6068  20.0402  21.0790  21.4534  21.7476  22.2215
    23.0744  24.6085  25.3516  25.7370  26.1051  26.5578  26.7222  26.7652
    27.3144  28.1418  32.2269  32.4031  32.9454  33.0291  33.2099  33.8052
    34.4976  34.7546  34.9423  35.3693  36.1949  36.9204  37.1431  38.0548

          k = 0.1111 0.1924 0.0000 ( 10007 PWs)   bands (ev):

   -77.5699 -77.5591 -77.5580 -40.9410 -40.8743 -40.8679 -40.8590 -40.8475
   -40.8463 -40.8176 -40.8110 -40.8011  -4.9450  -4.9191  -4.9025  -4.8540
    -4.8522  -4.8410  -4.7976  -4.7909  -4.7492  -4.7490  -4.7278  -4.7161
    -4.7122  -4.7090  -4.6790   5.5676   9.6400  10.1612  12.2515  13.1464
    13.4625  13.8324  14.0408  14.4340  14.6114  14.7548  14.8303  15.0654
    15.2979  16.2779  16.3145  16.3750  16.4154  16.6180  17.2603  17.6831
    18.3595  18.4685  19.7677  19.9707  20.7626  21.2484  21.2833  22.2962
    23.0983  24.9419  25.1862  25.4035  26.5200  26.9296  26.9367  27.1980
    27.2285  27.9695  31.4491  31.8695  32.4681  33.0241  33.3527  33.8964
    34.1962  34.7251  34.7558  35.4863  36.0154  36.8221  37.2145  37.9571

          k = 0.1389 0.2405 0.0000 ( 10015 PWs)   bands (ev):

   -77.5694 -77.5596 -77.5580 -40.9366 -40.8748 -40.8647 -40.8584 -40.8481
   -40.8463 -40.8221 -40.8122 -40.8026  -4.9438  -4.9309  -4.9057  -4.8558
    -4.8536  -4.8441  -4.7949  -4.7843  -4.7431  -4.7414  -4.7336  -4.7164
    -4.7080  -4.7045  -4.6799   5.7213   9.4892   9.7516  12.2109  13.2391
    13.4977  13.9017  14.0499  14.4767  14.7507  14.7668  14.9016  14.9959
    15.3459  16.2317  16.2793  16.3576  16.4430  16.7454  17.2828  17.7300
    18.5786  18.7777  19.8727  20.0122  20.4295  20.8402  21.0207  22.4396
    23.1773  24.4621  25.2066  25.4635  26.5928  27.1434  27.4338  27.5304
    27.7000  28.0355  30.5761  31.0667  31.6839  33.1415  33.3717  33.8982
    33.9004  34.4962  34.8104  35.8220  36.4313  36.7698  37.2903  37.6966

          k = 0.1666 0.2886 0.0000 ( 10007 PWs)   bands (ev):

   -77.5687 -77.5602 -77.5580 -40.9316 -40.8757 -40.8608 -40.8578 -40.8487
   -40.8463 -40.8271 -40.8136 -40.8043  -4.9460  -4.9391  -4.9075  -4.8569
    -4.8542  -4.8473  -4.7938  -4.7779  -4.7391  -4.7383  -4.7355  -4.7166
    -4.7023  -4.6996  -4.6807   5.9081   9.3008   9.3563  12.2393  13.3180
    13.5392  13.9790  14.0545  14.4748  14.7528  14.8572  14.9227  15.0006
    15.4028  16.1788  16.2224  16.3368  16.4698  16.9057  17.3140  17.7431
    18.8018  19.1906  19.7493  20.0734  20.3651  20.4209  20.8150  22.6209
    23.3158  23.7589  25.4273  25.5276  26.4421  27.0877  28.0220  28.0655
    28.2467  28.3657  29.8226  30.3174  30.9048  32.2912  33.5997  33.6101
    34.2673  34.4819  35.0176  35.6315  36.7680  37.1386  37.1567  37.1992

          k = 0.1944 0.3368 0.0000 ( 10007 PWs)   bands (ev):

   -77.5681 -77.5609 -77.5580 -40.9262 -40.8771 -40.8570 -40.8565 -40.8494
   -40.8463 -40.8321 -40.8151 -40.8062  -4.9558  -4.9389  -4.9076  -4.8570
    -4.8539  -4.8508  -4.7952  -4.7721  -4.7437  -4.7347  -4.7316  -4.7167
    -4.6958  -4.6951  -4.6814   6.1271   8.9819   9.0868  12.3338  13.3868
    13.5863  14.0508  14.0509  14.4467  14.7508  14.8524  14.8959  15.1167
    15.4673  16.1209  16.1486  16.3130  16.4962  17.0994  17.3567  17.7404
    19.0008  19.6075  19.6532  19.7272  20.0266  20.6865  20.7561  22.8178
    23.1629  23.5094  25.5856  25.6283  26.2785  26.9456  28.2554  28.4323
    28.6748  28.7773  29.7105  29.8471  30.2006  31.4254  33.3297  33.6243
    34.0460  35.1083  35.4356  35.4481  36.3170  36.5366  36.7637  37.0987

          k = 0.2222 0.3849 0.0000 (  9987 PWs)   bands (ev):

   -77.5673 -77.5616 -77.5580 -40.9205 -40.8794 -40.8563 -40.8517 -40.8502
   -40.8463 -40.8366 -40.8168 -40.8083  -4.9654  -4.9377  -4.9057  -4.8563
    -4.8549  -4.8526  -4.7994  -4.7671  -4.7467  -4.7321  -4.7293  -4.7165
    -4.6913  -4.6899  -4.6814   6.3768   8.6329   8.8616  12.4852  13.4462
    13.6378  14.0361  14.0876  14.4221  14.7456  14.7915  14.8932  15.2415
    15.5379  16.0599  16.0653  16.2869  16.5224  17.3261  17.4182  17.7326
    19.1758  19.3702  19.4560  19.6587  19.9687  20.8128  21.0770  22.8039
    23.0080  23.7481  25.6187  25.8261  26.1560  26.8102  27.5939  28.1593
    28.9077  29.3728  29.9610  30.0983  30.2094  30.6487  33.0640  33.5148
    33.8366  35.2185  35.5287  35.7916  35.8063  35.9650  36.6120  36.8033

          k = 0.2500 0.4330 0.0000 (  9981 PWs)   bands (ev):

   -77.5666 -77.5624 -77.5580 -40.9147 -40.8827 -40.8555 -40.8510 -40.8470
   -40.8463 -40.8402 -40.8183 -40.8105  -4.9734  -4.9367  -4.9020  -4.8599
    -4.8547  -4.8505  -4.8059  -4.7628  -4.7486  -4.7303  -4.7280  -4.7161
    -4.6884  -4.6864  -4.6796   6.6547   8.3122   8.6391  12.6828  13.4953
    13.6927  14.0079  14.0458  14.4399  14.7341  14.7448  14.8652  15.3685
    15.6124  15.9779  15.9976  16.2600  16.5478  17.5073  17.5843  17.7262
    18.9948  19.3036  19.3179  19.3482  19.9828  21.1207  21.3224  22.8654
    23.1649  24.0176  25.6001  26.0309  26.0998  26.5701  27.0462  27.5648
    28.3612  29.6870  30.1017  30.4676  30.7532  31.0930  32.8172  33.3487
    33.6418  34.7800  35.0275  35.0599  35.9773  36.0233  36.7235  36.7541

          k = 0.2777 0.4811 0.0000 (  9989 PWs)   bands (ev):

   -77.5658 -77.5631 -77.5580 -40.9088 -40.8871 -40.8547 -40.8518 -40.8463
   -40.8427 -40.8427 -40.8194 -40.8128  -4.9793  -4.9359  -4.8965  -4.8658
    -4.8525  -4.8480  -4.8132  -4.7592  -4.7500  -4.7290  -4.7274  -4.7157
    -4.6865  -4.6856  -4.6764   6.9558   8.0217   8.4326  12.9150  13.5324
    13.7496  13.9211  13.9671  14.4964  14.7105  14.7143  14.8308  15.4917
    15.6879  15.8889  15.9358  16.2343  16.5710  17.6320  17.7263  17.8706
    18.6275  19.0047  19.1588  19.5050  19.8989  20.9473  21.9806  23.2343
    23.2607  24.2954  25.4887  26.0558  26.1092  26.2486  26.9729  26.9921
    27.7147  28.9240  30.8450  31.1505  31.4926  31.8709  32.5956  33.1681
    33.4618  34.0830  34.3251  34.8249  35.3638  35.4972  37.3119  37.4184

          k = 0.3055 0.5292 0.0000 (  9969 PWs)   bands (ev):

   -77.5651 -77.5638 -77.5580 -40.9031 -40.8922 -40.8539 -40.8526 -40.8464
   -40.8440 -40.8396 -40.8194 -40.8152  -4.9828  -4.9355  -4.8893  -4.8728
    -4.8499  -4.8461  -4.8196  -4.7563  -4.7515  -4.7281  -4.7273  -4.7152
    -4.6856  -4.6854  -4.6741   7.2664   7.7630   8.2609  13.1670  13.5563
    13.7363  13.8068  13.9171  14.5620  14.6702  14.6985  14.8076  15.6053
    15.7598  15.7984  15.8764  16.2139  16.5890  17.7358  17.7970  18.1759
    18.2834  18.7198  19.0342  19.6447  19.8101  20.7719  22.6419  23.2809
    23.5375  24.5380  25.2594  25.7764  26.0510  26.4823  26.6904  27.0126
    27.1348  28.2797  31.5623  31.8266  32.1826  32.4330  32.6030  33.0107
    33.2845  33.4872  33.6354  34.5852  34.7541  34.9862  37.8676  38.1689

          k = 0.3333 0.5773 0.0000 (  9957 PWs)   bands (ev):

   -77.5645 -77.5644 -77.5580 -40.8976 -40.8975 -40.8533 -40.8532 -40.8464
   -40.8444 -40.8385 -40.8178 -40.8177  -4.9840  -4.9353  -4.8810  -4.8810
    -4.8470  -4.8470  -4.8222  -4.7536  -4.7536  -4.7276  -4.7276  -4.7151
    -4.6853  -4.6853  -4.6733   7.5369   7.5372   8.1759  13.3591  13.5665
    13.5666  13.8628  13.8628  14.6200  14.6200  14.6942  14.8004  15.7058
    15.7060  15.8209  15.8211  16.2052  16.5966  17.7480  18.0026  18.0030
    18.4631  18.4637  18.9681  19.7384  19.7384  20.7016  23.0191  23.4035
    23.4043  24.6508  25.1839  25.8212  25.8216  26.7339  26.7345  26.8572
    26.8580  28.0047  32.0330  32.0334  32.5036  32.5438  32.9750  32.9751
    33.0964  33.2233  33.2235  34.4319  34.4320  34.7646  38.2307  38.7836

          k = 0.3472 0.5532 0.0000 (  9967 PWs)   bands (ev):

   -77.5647 -77.5642 -77.5580 -40.9003 -40.8949 -40.8535 -40.8529 -40.8464
   -40.8444 -40.8388 -40.8190 -40.8163  -4.9837  -4.9354  -4.8855  -4.8765
    -4.8489  -4.8456  -4.8216  -4.7550  -4.7524  -4.7278  -4.7274  -4.7151
    -4.6854  -4.6853  -4.6735   7.4367   7.6146   8.2087  13.2817  13.5669
    13.6350  13.8357  13.8897  14.5949  14.6435  14.6950  14.8020  15.6589
    15.7510  15.7954  15.8447  16.2079  16.5942  17.7355  17.9154  18.1193
    18.3462  18.5583  18.9991  19.7121  19.7592  20.7197  22.9615  23.1861
    23.6008  24.6149  25.1802  25.7594  25.9294  26.6467  26.6938  26.8668
    27.0390  28.0617  31.9320  31.9906  32.4313  32.4479  32.8806  32.9375
    33.0993  33.2994  33.4191  34.4301  34.5281  34.8680  38.0055  38.6643

          k = 0.3611 0.5292 0.0000 (  9985 PWs)   bands (ev):

   -77.5650 -77.5639 -77.5580 -40.9029 -40.8923 -40.8538 -40.8526 -40.8464
   -40.8441 -40.8394 -40.8202 -40.8147  -4.9829  -4.9355  -4.8903  -4.8720
    -4.8515  -4.8442  -4.8199  -4.7566  -4.7512  -4.7281  -4.7273  -4.7153
    -4.6857  -4.6853  -4.6740   7.3449   7.6359   8.3091  13.1360  13.5643
    13.7567  13.8093  13.9155  14.5712  14.6626  14.6973  14.8069  15.6117
    15.7714  15.7931  15.8625  16.2164  16.5865  17.6872  17.8900  18.2368
    18.2427  18.5921  19.1007  19.6939  19.7643  20.7706  22.8392  22.9266
    23.7655  24.5067  25.1605  25.7789  25.9535  26.6387  26.6462  27.0034
    27.2597  28.2043  31.7633  31.8064  32.2476  32.3117  32.6555  32.8306
    33.0536  33.5824  33.7727  34.3787  34.7898  35.1540  37.5287  38.2391

          k = 0.3750 0.5051 0.0000 (  9981 PWs)   bands (ev):

   -77.5653 -77.5636 -77.5580 -40.9054 -40.8898 -40.8541 -40.8523 -40.8464
   -40.8438 -40.8402 -40.8214 -40.8130  -4.9814  -4.9356  -4.8953  -4.8674
    -4.8543  -4.8428  -4.8176  -4.7584  -4.7500  -4.7284  -4.7272  -4.7155
    -4.6859  -4.6853  -4.6748   7.2616   7.6190   8.4584  12.9680  13.5594
    13.7842  13.8849  13.9400  14.5495  14.6772  14.7005  14.8149  15.5645
    15.7492  15.8329  15.8742  16.2307  16.5728  17.6241  17.9061  18.1350
    18.3710  18.5838  19.2534  19.6859  19.7589  20.8455  22.6557  22.6789
    23.8683  24.3380  25.1247  25.7869  25.8874  26.7212  26.8000  27.1437
    27.5134  28.4048  31.5245  31.5715  32.1059  32.1124  32.3695  32.7093
    33.0040  33.9358  34.1729  34.3017  35.1456  35.5192  36.9968  37.7628

          k = 0.3889 0.4811 0.0000 (  9979 PWs)   bands (ev):

   -77.5656 -77.5634 -77.5580 -40.9077 -40.8874 -40.8544 -40.8520 -40.8464
   -40.8433 -40.8413 -40.8226 -40.8113  -4.9794  -4.9358  -4.9006  -4.8628
    -4.8572  -4.8415  -4.8147  -4.7604  -4.7488  -4.7286  -4.7272  -4.7159
    -4.6863  -4.6853  -4.6759   7.1870   7.5852   8.6344  12.7866  13.5526
    13.7607  13.9629  14.0107  14.5300  14.6875  14.7043  14.8259  15.5176
    15.7290  15.8710  15.8802  16.2502  16.5533  17.5688  17.9399  18.0414
    18.5007  18.5587  19.4312  19.6909  19.7493  20.9311  22.3956  22.4900
    23.9159  24.1287  25.0702  25.5411  26.0702  26.8529  27.0663  27.2872
    27.7958  28.6506  31.2407  31.3237  31.8663  32.0077  32.0581  32.6045
    32.9583  34.2107  34.3128  34.5925  35.5486  35.8873  36.4557  37.3224

          k = 0.4028 0.4570 0.0000 (  9995 PWs)   bands (ev):

   -77.5658 -77.5631 -77.5580 -40.9099 -40.8851 -40.8546 -40.8518 -40.8463
   -40.8428 -40.8425 -40.8238 -40.8096  -4.9769  -4.9360  -4.9059  -4.8600
    -4.8584  -4.8403  -4.8116  -4.7627  -4.7476  -4.7289  -4.7272  -4.7163
    -4.6866  -4.6854  -4.6770   7.1211   7.5465   8.8238  12.5959  13.5447
    13.7392  13.9839  14.1301  14.5131  14.6937  14.7085  14.8398  15.4715
    15.7108  15.8819  15.9080  16.2734  16.5284  17.5268  17.9562  17.9833
    18.5288  18.6271  19.6206  19.7129  19.7411  21.0065  22.1706  22.2799
    23.8970  23.9270  24.9721  25.3141  26.3008  27.0242  27.3629  27.4325
    28.1029  28.9353  30.9385  31.0775  31.5961  31.7378  31.9349  32.5170
    32.9175  34.1034  34.6959  35.0224  35.9057  35.9913  36.1249  37.0528

          k = 0.4166 0.4330 0.0000 (  9987 PWs)   bands (ev):

   -77.5660 -77.5629 -77.5580 -40.9118 -40.8829 -40.8549 -40.8516 -40.8463
   -40.8437 -40.8422 -40.8249 -40.8081  -4.9739  -4.9362  -4.9114  -4.8626
    -4.8543  -4.8393  -4.8082  -4.7651  -4.7465  -4.7291  -4.7271  -4.7169
    -4.6869  -4.6857  -4.6782   7.0639   7.5086   9.0188  12.4000  13.5362
    13.7201  14.0028  14.2406  14.4985  14.6963  14.7126  14.8562  15.4267
    15.6949  15.8804  15.9443  16.2985  16.4994  17.4973  17.8799  18.0328
    18.4992  18.7439  19.7388  19.7574  19.8143  21.0376  22.0164  22.0549
    23.6571  23.9191  24.7833  25.1769  26.5547  27.2228  27.5781  27.6653
    28.4294  29.2529  30.6310  30.8402  31.3202  31.4178  31.8776  32.4406
    32.8820  33.9704  35.0749  35.3977  35.4574  36.0036  36.4206  37.1894

          k = 0.4305 0.4089 0.0000 (  9993 PWs)   bands (ev):

   -77.5662 -77.5628 -77.5580 -40.9134 -40.8809 -40.8550 -40.8514 -40.8463
   -40.8449 -40.8416 -40.8259 -40.8067  -4.9704  -4.9366  -4.9169  -4.8649
    -4.8505  -4.8383  -4.8048  -4.7677  -4.7454  -4.7292  -4.7272  -4.7174
    -4.6873  -4.6861  -4.6792   7.0154   7.4742   9.2136  12.2035  13.5277
    13.7035  14.0193  14.3401  14.4864  14.6956  14.7165  14.8746  15.3840
    15.6812  15.8772  15.9800  16.3237  16.4678  17.4781  17.8132  18.0855
    18.4723  18.8444  19.7459  19.8298  20.0067  20.9876  21.8211  21.9704
    23.4196  23.9033  24.5326  25.1116  26.8129  27.4405  27.7213  27.9652
    28.7670  29.5937  30.3249  30.6171  31.0532  31.1062  31.8317  32.3695
    32.8518  33.7981  34.9032  35.4406  35.7032  35.8931  36.8674  37.5646

          k = 0.4444 0.3849 0.0000 ( 10005 PWs)   bands (ev):

   -77.5663 -77.5626 -77.5580 -40.9148 -40.8792 -40.8552 -40.8513 -40.8463
   -40.8460 -40.8410 -40.8268 -40.8056  -4.9665  -4.9370  -4.9222  -4.8668
    -4.8473  -4.8376  -4.8013  -4.7705  -4.7444  -4.7294  -4.7272  -4.7180
    -4.6875  -4.6866  -4.6800   6.9757   7.4450   9.4019  12.0129  13.5200
    13.6897  14.0332  14.4267  14.4766  14.6919  14.7199  14.8940  15.3444
    15.6699  15.8732  16.0145  16.3472  16.4352  17.4663  17.7568  18.1380
    18.4494  18.9238  19.7653  19.9340  20.1915  20.8621  21.5833  22.0267
    23.1946  23.8860  24.2723  25.0738  27.0608  27.6713  27.8579  28.2605
    29.1021  29.9331  30.0242  30.4140  30.8096  30.8222  31.7953  32.2981
    32.8270  33.5730  34.4467  35.4192  35.7821  36.3232  37.3136  37.9955

          k = 0.4583 0.3608 0.0000 ( 10017 PWs)   bands (ev):

   -77.5664 -77.5625 -77.5580 -40.9159 -40.8778 -40.8553 -40.8511 -40.8470
   -40.8463 -40.8405 -40.8276 -40.8047  -4.9623  -4.9378  -4.9271  -4.8683
    -4.8446  -4.8369  -4.7979  -4.7733  -4.7436  -4.7295  -4.7272  -4.7185
    -4.6878  -4.6872  -4.6805   6.9448   7.4216   9.5750  11.8371  13.5133
    13.6788  14.0442  14.4690  14.4993  14.6850  14.7228  14.9131  15.3095
    15.6610  15.8693  16.0468  16.3675  16.4038  17.4597  17.7116  18.1861
    18.4310  18.9808  19.7984  20.0693  20.3600  20.7041  21.3464  22.1411
    22.9930  23.8704  24.0260  25.0488  27.2845  27.9092  27.9819  28.5511
    29.4104  29.7331  30.1534  30.2377  30.6103  30.6734  31.7676  32.2210
    32.8078  33.2940  34.0477  35.2027  36.0846  36.7367  37.7503  38.4311

          k = 0.4722 0.3368 0.0000 ( 10022 PWs)   bands (ev):

   -77.5665 -77.5624 -77.5580 -40.9167 -40.8766 -40.8554 -40.8511 -40.8478
   -40.8463 -40.8401 -40.8283 -40.8040  -4.9579  -4.9395  -4.9310  -4.8694
    -4.8426  -4.8365  -4.7948  -4.7760  -4.7429  -4.7296  -4.7272  -4.7189
    -4.6879  -4.6878  -4.6809   6.9227   7.4046   9.7205  11.6892  13.5083
    13.6709  14.0522  14.4637  14.5577  14.6744  14.7249  14.9299  15.2814
    15.6547  15.8661  16.0748  16.3761  16.3832  17.4564  17.6785  18.2252
    18.4176  19.0176  19.8435  20.2302  20.4999  20.5509  21.1154  22.2719
    22.8287  23.8118  23.8584  25.0321  27.4676  28.0840  28.1454  28.8366
    29.4597  29.6474  30.0265  30.0978  30.4888  30.8695  31.7480  32.1360
    32.7940  32.9839  33.7327  35.0597  36.3284  37.1114  38.1605  38.8406

          k = 0.4861 0.3127 0.0000 ( 10010 PWs)   bands (ev):

   -77.5666 -77.5624 -77.5580 -40.9172 -40.8759 -40.8555 -40.8510 -40.8483
   -40.8463 -40.8398 -40.8287 -40.8036  -4.9535  -4.9426  -4.9330  -4.8701
    -4.8414  -4.8362  -4.7923  -4.7782  -4.7425  -4.7296  -4.7272  -4.7192
    -4.6882  -4.6880  -4.6811   6.9095   7.3944   9.8208  11.5873  13.5052
    13.6662  14.0571  14.4605  14.6024  14.6587  14.7262  14.9418  15.2627
    15.6508  15.8640  16.0947  16.3562  16.3931  17.4549  17.6583  18.2509
    18.4095  19.0379  19.8904  20.4039  20.4326  20.5949  20.9011  22.3807
    22.7187  23.6561  23.8510  25.0225  27.5905  28.1528  28.3555  29.1088
    29.2275  29.7662  29.7776  30.0062  30.4681  31.1472  31.7363  32.0568
    32.7019  32.7857  33.5307  34.9807  36.4897  37.3992  38.5004  39.1713

          k = 0.5000 0.2887 0.0000 ( 10026 PWs)   bands (ev):

   -77.5666 -77.5624 -77.5580 -40.9174 -40.8757 -40.8555 -40.8510 -40.8485
   -40.8463 -40.8396 -40.8288 -40.8034  -4.9507  -4.9451  -4.9335  -4.8703
    -4.8410  -4.8361  -4.7913  -4.7792  -4.7424  -4.7296  -4.7272  -4.7193
    -4.6883  -4.6881  -4.6811   6.9051   7.3909   9.8571  11.5504  13.5041
    13.6646  14.0587  14.4594  14.6318  14.6389  14.7266  14.9462  15.2561
    15.6496  15.8633  16.1021  16.3488  16.3965  17.4545  17.6515  18.2599
    18.4068  19.0444  19.9129  20.3853  20.5195  20.6290  20.7721  22.4248
    22.6795  23.5968  23.8484  25.0193  27.6343  28.1774  28.4574  29.1183
    29.2800  29.6096  29.7919  29.9741  30.4831  31.2780  31.7324  32.0217
    32.5730  32.7829  33.4614  34.9556  36.5466  37.5144  38.6515  39.3118

          k = 0.4583 0.2646 0.0000 ( 10008 PWs)   bands (ev):

   -77.5667 -77.5622 -77.5580 -40.9181 -40.8756 -40.8556 -40.8508 -40.8494
   -40.8463 -40.8389 -40.8279 -40.8034  -4.9499  -4.9446  -4.9334  -4.8700
    -4.8410  -4.8371  -4.7902  -4.7796  -4.7425  -4.7300  -4.7275  -4.7192
    -4.6907  -4.6862  -4.6819   6.7735   7.5435   9.8614  11.5624  13.4931
    13.6573  14.0600  14.4403  14.6321  14.6493  14.7358  14.9427  15.2442
    15.6268  15.8873  16.1085  16.3559  16.3965  17.4505  17.5737  18.2308
    18.5027  19.0869  19.7503  20.2506  20.6343  20.6616  20.8888  22.3990
    22.6853  23.6059  23.6519  25.3879  27.5357  27.7936  28.8523  28.9206
    28.9445  29.7288  30.1439  30.1933  30.3086  31.3586  31.4827  31.7097
    32.7757  33.1889  33.3461  35.2253  36.4709  37.5999  38.4592  39.4269

          k = 0.4167 0.2406 0.0000 (  9988 PWs)   bands (ev):

   -77.5671 -77.5618 -77.5580 -40.9204 -40.8754 -40.8560 -40.8518 -40.8504
   -40.8463 -40.8369 -40.8257 -40.8033  -4.9477  -4.9433  -4.9330  -4.8691
    -4.8412  -4.8395  -4.7877  -4.7807  -4.7426  -4.7310  -4.7282  -4.7190
    -4.6937  -4.6846  -4.6840   6.5466   7.8330   9.8746  11.5982  13.4620
    13.6370  14.0627  14.3913  14.6325  14.6715  14.7625  14.9310  15.2097
    15.5765  15.9412  16.1269  16.3751  16.3966  17.4081  17.4383  18.1586
    18.7214  19.1959  19.4499  20.0265  20.6515  20.9013  21.0465  22.2347
    22.7026  23.3832  23.8173  26.0881  27.2937  27.3170  28.4622  28.5561
    29.3405  29.9609  30.0636  30.6225  30.6732  30.7628  31.1381  31.8898
    33.0501  33.1669  33.9021  35.8417  36.2988  37.7979  38.1186  39.3201

          k = 0.3750 0.2165 0.0000 (  9984 PWs)   bands (ev):

   -77.5676 -77.5613 -77.5580 -40.9236 -40.8751 -40.8566 -40.8549 -40.8499
   -40.8463 -40.8339 -40.8227 -40.8031  -4.9440  -4.9420  -4.9315  -4.8677
    -4.8425  -4.8414  -4.7849  -4.7826  -4.7423  -4.7328  -4.7296  -4.7186
    -4.6973  -4.6875  -4.6833   6.3194   8.1624   9.8972  11.6573  13.4154
    13.6076  14.0646  14.3228  14.6317  14.6942  14.8043  14.9078  15.1554
    15.5185  16.0049  16.1549  16.3966  16.4014  17.2252  17.4172  18.0686
    18.9871  19.1388  19.3211  19.8329  20.6852  21.0827  21.1163  21.9355
    22.7308  23.4888  24.0905  26.8555  26.8568  26.9913  28.0014  28.1728
    29.5939  29.6546  30.4040  30.4525  30.4942  31.1135  31.2125  32.3622
    32.9846  33.3640  34.6805  36.0987  36.6012  37.7540  38.0278  38.7419

          k = 0.3333 0.1925 0.0000 (  9990 PWs)   bands (ev):

   -77.5682 -77.5608 -77.5580 -40.9275 -40.8748 -40.8582 -40.8572 -40.8493
   -40.8463 -40.8302 -40.8197 -40.8028  -4.9416  -4.9390  -4.9281  -4.8657
    -4.8454  -4.8415  -4.7851  -4.7833  -4.7409  -4.7353  -4.7318  -4.7181
    -4.7012  -4.6919  -4.6821   6.1091   8.5102   9.9311  11.7385  13.3593
    13.5733  14.0641  14.2399  14.6270  14.7123  14.8577  14.8685  15.0852
    15.4604  16.0703  16.1891  16.3968  16.4276  17.0509  17.3872  17.9771
    18.8542  19.2640  19.3265  19.8006  20.7451  20.8629  21.2829  21.7873
    22.7692  23.8090  24.4605  26.4190  26.6785  27.3713  27.8022  27.8099
    29.1875  29.3482  29.8770  30.7362  30.9169  31.6348  31.7020  32.8675
    32.9241  33.6477  35.4779  35.9086  37.3402  37.3787  37.8771  38.0655

          k = 0.2917 0.1684 0.0000 ( 10010 PWs)   bands (ev):

   -77.5687 -77.5602 -77.5580 -40.9317 -40.8745 -40.8614 -40.8578 -40.8487
   -40.8463 -40.8262 -40.8168 -40.8024  -4.9422  -4.9329  -4.9230  -4.8633
    -4.8478  -4.8414  -4.7881  -4.7837  -4.7387  -4.7381  -4.7350  -4.7175
    -4.7051  -4.6969  -4.6811   5.9204   8.8634   9.9816  11.8403  13.2982
    13.5378  14.0603  14.1457  14.6136  14.7231  14.8103  14.9184  15.0042
    15.4057  16.1336  16.2255  16.3970  16.4462  16.8944  17.3499  17.8917
    18.6142  19.1493  19.5252  19.9680  20.5005  20.8478  21.4029  21.8075
    22.8166  24.2410  24.9066  26.0041  26.3822  27.0509  27.4546  28.2511
    28.6072  29.0714  29.5243  31.2816  31.4110  32.0485  32.1757  33.0241
    33.3887  33.9441  35.7017  36.3154  36.7411  36.8961  37.4940  38.3120

          k = 0.2500 0.1443 0.0000 ( 10012 PWs)   bands (ev):

   -77.5693 -77.5597 -77.5580 -40.9359 -40.8743 -40.8644 -40.8583 -40.8481
   -40.8463 -40.8222 -40.8143 -40.8019  -4.9432  -4.9258  -4.9168  -4.8605
    -4.8494  -4.8411  -4.7916  -4.7862  -4.7431  -4.7394  -4.7340  -4.7170
    -4.7088  -4.7021  -4.6802   5.7553   9.2017  10.0621  11.9603  13.2343
    13.5037  14.0444  14.0536  14.5825  14.7020  14.7553  14.9215  14.9818
    15.3561  16.1924  16.2603  16.3974  16.4507  16.7591  17.3107  17.8128
    18.4267  18.9028  19.7434  20.0560  20.3259  21.0153  21.4856  21.8788
    22.8709  24.7320  25.3932  25.6098  26.1296  26.6757  27.1356  28.0343
    28.0507  28.8308  29.9447  31.8629  31.9175  32.1872  32.7294  33.3242
    33.8970  34.2342  35.5455  35.9949  36.0885  37.0974  37.1608  38.5317

          k = 0.2083 0.1203 0.0000 ( 10008 PWs)   bands (ev):

   -77.5697 -77.5592 -77.5580 -40.9397 -40.8741 -40.8672 -40.8588 -40.8476
   -40.8463 -40.8185 -40.8123 -40.8011  -4.9445  -4.9181  -4.9102  -4.8574
    -4.8500  -4.8401  -4.7953  -4.7901  -4.7485  -4.7451  -4.7294  -4.7165
    -4.7118  -4.7069  -4.6793   5.6147   9.4862  10.2041  12.0948  13.1655
    13.4728  13.9426  14.0449  14.5198  14.6027  14.7508  14.8518  15.0433
    15.3126  16.2449  16.2900  16.3979  16.4385  16.6466  17.2772  17.7337
    18.2906  18.6368  19.8433  19.9007  20.5723  21.2624  21.5410  21.9655
    22.9296  25.2307  25.2358  25.7130  26.1120  26.3373  26.8503  27.5030
    27.5402  28.6331  30.7314  32.2248  32.4180  32.4483  33.2882  33.6984
    34.2657  34.3439  35.3731  35.4121  35.5574  36.9338  37.7357  38.4045

          k = 0.1667 0.0962 0.0000 ( 10010 PWs)   bands (ev):

   -77.5701 -77.5588 -77.5580 -40.9430 -40.8740 -40.8695 -40.8592 -40.8472
   -40.8463 -40.8152 -40.8109 -40.8002  -4.9457  -4.9102  -4.9037  -4.8541
    -4.8497  -4.8385  -4.7990  -4.7949  -4.7547  -4.7518  -4.7248  -4.7160
    -4.7142  -4.7109  -4.6786   5.4991   9.6738  10.4411  12.2385  13.0839
    13.4464  13.8512  14.0354  14.4190  14.4734  14.7530  14.8058  15.0990
    15.2760  16.2894  16.3121  16.3988  16.4130  16.5569  17.2553  17.6423
    18.1976  18.3986  19.6737  20.0001  20.8707  21.5770  21.5829  22.0601
    22.9889  24.8577  25.5938  25.6536  26.0670  26.5772  26.6038  27.0340
    27.0822  28.4898  31.5103  32.3104  32.8650  33.0170  33.8409  33.8603
    34.0644  34.1170  35.3105  35.3789  35.6651  36.7771  38.0239  38.0472

          k = 0.1250 0.0722 0.0000 ( 10000 PWs)   bands (ev):

   -77.5705 -77.5585 -77.5580 -40.9458 -40.8739 -40.8713 -40.8596 -40.8469
   -40.8463 -40.8124 -40.8098 -40.7994  -4.9469  -4.9026  -4.8981  -4.8509
    -4.8487  -4.8361  -4.8026  -4.7999  -4.7610  -4.7589  -4.7208  -4.7159
    -4.7156  -4.7141  -4.6780   5.4090   9.7748  10.7482  12.3826  12.9781
    13.4252  13.7845  14.0263  14.2931  14.3312  14.7548  14.7800  15.1456
    15.2471  16.3245  16.3253  16.3822  16.4002  16.4894  17.2450  17.5331
    18.1371  18.2291  19.5613  20.0582  21.1605  21.5995  21.9570  22.1610
    23.0440  24.4793  25.4453  25.6877  25.9325  26.4019  26.6470  26.9557
    27.0698  28.4265  31.9063  32.7774  32.9785  33.2520  33.5397  33.7933
    34.3682  34.4001  35.2490  35.7657  36.0909  36.6974  37.6939  38.0946

          k = 0.0833 0.0481 0.0000 ( 10018 PWs)   bands (ev):

   -77.5707 -77.5582 -77.5580 -40.9478 -40.8738 -40.8727 -40.8599 -40.8466
   -40.8463 -40.8104 -40.8092 -40.7986  -4.9477  -4.8963  -4.8938  -4.8482
    -4.8473  -4.8332  -4.8057  -4.8043  -4.7668  -4.7655  -4.7177  -4.7171
    -4.7163  -4.7153  -4.6775   5.3445   9.8279  11.0630  12.5132  12.8445
    13.4098  13.7538  14.0189  14.1672  14.1924  14.7559  14.7659  15.1804
    15.2261  16.3304  16.3491  16.3549  16.4025  16.4427  17.2424  17.4242
    18.1001  18.1326  19.4909  20.0904  21.4049  21.6127  22.2653  22.3645
    23.0895  24.0860  25.3326  25.5066  25.7024  26.2511  26.3599  27.2294
    27.4387  28.4915  31.9622  32.5294  32.6658  33.5361  33.9684  34.0448
    34.6705  34.8346  35.2387  36.1074  36.5555  36.7174  37.3528  37.9461

          k = 0.0417 0.0241 0.0000 ( 10023 PWs)   bands (ev):

   -77.5709 -77.5581 -77.5580 -40.9491 -40.8738 -40.8735 -40.8600 -40.8465
   -40.8463 -40.8092 -40.8089 -40.7981  -4.9483  -4.8919  -4.8912  -4.8462
    -4.8460  -4.8307  -4.8079  -4.8075  -4.7708  -4.7704  -4.7178  -4.7176
    -4.7158  -4.7152  -4.6772   5.3057   9.8546  11.3184  12.6091  12.7092
    13.4005  13.7560  14.0140  14.0710  14.0810  14.7564  14.7588  15.2019
    15.2134  16.3307  16.3366  16.3627  16.4052  16.4155  17.2430  17.3464
    18.0802  18.0871  19.4523  20.1064  21.5662  21.6195  22.3565  22.7872
    23.1197  23.6772  25.2635  25.3242  25.5219  26.1574  26.1845  27.5309
    27.6128  28.6713  31.9438  32.0870  32.2620  34.1863  34.2417  34.3262
    34.9089  35.1767  35.2770  36.3078  36.7735  36.8683  37.1137  37.6264

          k = 0.0000 0.0000 0.0000 ( 10021 PWs)   bands (ev):

   -77.5709 -77.5581 -77.5579 -40.9495 -40.8738 -40.8738 -40.8601 -40.8464
   -40.8463 -40.8088 -40.8088 -40.7979  -4.9485  -4.8903  -4.8903  -4.8455
    -4.8455  -4.8296  -4.8087  -4.8087  -4.7723  -4.7723  -4.7180  -4.7180
    -4.7151  -4.7151  -4.6771   5.2928   9.8629  11.4238  12.6452  12.6453
    13.3974  13.7651  14.0122  14.0343  14.0343  14.7566  14.7566  15.2091
    15.2092  16.3302  16.3303  16.3669  16.4065  16.4066  17.2435  17.3187
    18.0739  18.0740  19.4399  20.1112  21.6216  21.6217  22.3955  23.1302
    23.1303  23.3394  25.2402  25.2403  25.4683  26.1256  26.1257  27.6540
    27.6540  28.7752  31.9075  31.9075  32.1379  34.3309  34.4391  34.4391
    35.0562  35.3070  35.3070  36.3934  36.7531  36.7531  37.2962  37.5437

          k = 0.0000 0.0000 0.0516 ( 10021 PWs)   bands (ev):

   -77.5709 -77.5581 -77.5579 -40.9495 -40.8738 -40.8738 -40.8601 -40.8464
   -40.8463 -40.8088 -40.8088 -40.7979  -4.9481  -4.8902  -4.8902  -4.8458
    -4.8457  -4.8293  -4.8094  -4.8094  -4.7719  -4.7719  -4.7176  -4.7176
    -4.7151  -4.7151  -4.6770   5.3075   9.8503  11.4142  12.6614  12.6615
    13.4191  13.5834  14.0393  14.0394  14.1519  14.7564  14.7564  15.2091
    15.2092  16.3303  16.3304  16.3661  16.4051  16.4051  17.2436  17.3198
    18.0508  18.0509  19.5162  20.0497  21.5744  21.5745  22.0859  22.9938
    22.9939  23.6732  25.4202  25.4203  25.5762  26.1707  26.1708  27.7098
    27.7098  28.7935  31.9063  31.9063  32.1385  34.3115  34.3830  34.3831
    35.0604  35.2791  35.2791  36.2671  36.7664  36.7664  37.2286  37.3531

          k = 0.0000 0.0000 0.1033 ( 10003 PWs)   bands (ev):

   -77.5709 -77.5581 -77.5579 -40.9495 -40.8738 -40.8738 -40.8601 -40.8464
   -40.8463 -40.8088 -40.8088 -40.7979  -4.9472  -4.8901  -4.8900  -4.8466
    -4.8465  -4.8282  -4.8116  -4.8116  -4.7710  -4.7710  -4.7163  -4.7163
    -4.7152  -4.7152  -4.6767   5.3517   9.8105  11.3871  12.7099  12.7100
    13.2948  13.4826  14.0540  14.0541  14.3242  14.7559  14.7559  15.2094
    15.2095  16.3306  16.3307  16.3637  16.4008  16.4009  17.2436  17.3183
    17.9809  17.9810  19.7054  19.9180  21.4415  21.4416  21.5570  22.6815
    22.6816  24.2748  25.8634  25.8635  25.8835  26.2973  26.2974  27.8773
    27.8773  28.8483  31.9029  31.9030  32.1399  34.2118  34.2118  34.2545
    35.0728  35.2010  35.2010  35.9412  36.8035  36.8036  36.9473  37.0693

          k = 0.0000 0.0000 0.1549 (  9991 PWs)   bands (ev):

   -77.5709 -77.5581 -77.5579 -40.9494 -40.8738 -40.8738 -40.8601 -40.8464
   -40.8463 -40.8088 -40.8088 -40.7979  -4.9457  -4.8897  -4.8897  -4.8478
    -4.8478  -4.8265  -4.8150  -4.8150  -4.7694  -4.7694  -4.7154  -4.7154
    -4.7144  -4.7144  -4.6762   5.4250   9.7379  11.3463  12.7901  12.7902
    12.9963  13.5834  14.0776  14.0777  14.4587  14.7550  14.7550  15.2102
    15.2103  16.3310  16.3311  16.3599  16.3941  16.3942  17.2436  17.3035
    17.8635  17.8636  19.5822  20.1685  21.0117  21.2442  21.2443  22.3221
    22.3222  24.9402  26.3518  26.4410  26.4411  26.4851  26.4851  28.1550
    28.1551  28.9393  31.8980  31.8980  32.1402  33.9254  33.9255  34.1636
    35.0856  35.0856  35.0930  35.5055  36.3331  36.8578  36.8579  36.8719

          k = 0.0000 0.0000 0.2066 (  9960 PWs)   bands (ev):

   -77.5709 -77.5581 -77.5579 -40.9494 -40.8738 -40.8738 -40.8602 -40.8464
   -40.8463 -40.8088 -40.8088 -40.7979  -4.9438  -4.8893  -4.8893  -4.8494
    -4.8494  -4.8243  -4.8192  -4.8192  -4.7673  -4.7673  -4.7157  -4.7157
    -4.7122  -4.7122  -4.6755   5.5271   9.6245  11.2969  12.7190  12.9013
    12.9014  13.7155  14.1085  14.1086  14.5578  14.7534  14.7534  15.2121
    15.2122  16.3314  16.3314  16.3549  16.3855  16.3856  17.2437  17.2656
    17.6985  17.6986  19.3108  20.4829  20.6606  21.0074  21.0075  21.9789
    21.9790  25.6355  26.7153  26.7154  26.9411  27.0880  27.0881  28.5364
    28.5365  29.0659  31.8927  31.8927  32.1349  33.5409  33.5409  34.0397
    34.9471  34.9471  35.0205  35.1200  35.5192  36.7852  36.7852  36.9232

          k = 0.0000 0.0000 0.2582 (  9954 PWs)   bands (ev):

   -77.5709 -77.5581 -77.5580 -40.9494 -40.8738 -40.8738 -40.8603 -40.8464
   -40.8463 -40.8088 -40.8088 -40.7979  -4.9415  -4.8888  -4.8888  -4.8513
    -4.8513  -4.8239  -4.8238  -4.8218  -4.7649  -4.7648  -4.7161  -4.7161
    -4.7098  -4.7098  -4.6748   5.6574   9.4633  11.2438  12.4843  13.0420
    13.0421  13.8723  14.1446  14.1447  14.6302  14.7508  14.7509  15.2157
    15.2158  16.3313  16.3314  16.3491  16.3757  16.3758  17.1975  17.2437
    17.4887  17.4888  19.0406  19.9804  20.7534  20.7535  21.2590  21.6780
    21.6781  26.3487  26.9775  26.9775  27.6191  27.7730  27.7731  29.0092
    29.0093  29.2273  31.8891  31.8891  32.1117  33.0875  33.0875  33.8625
    34.5178  34.6747  34.7971  34.7971  35.1526  36.7941  36.7941  36.9955

          k = 0.0000 0.0000 0.3099 (  9972 PWs)   bands (ev):

   -77.5709 -77.5581 -77.5580 -40.9493 -40.8738 -40.8738 -40.8604 -40.8464
   -40.8463 -40.8088 -40.8088 -40.7979  -4.9391  -4.8883  -4.8883  -4.8532
    -4.8532  -4.8287  -4.8287  -4.8190  -4.7621  -4.7621  -4.7167  -4.7167
    -4.7074  -4.7074  -4.6740   5.8151   9.2521  11.1913  12.3044  13.2102
    13.2103  14.0470  14.1834  14.1835  14.6842  14.7467  14.7467  15.2215
    15.2216  16.3302  16.3303  16.3429  16.3654  16.3655  17.0958  17.2407
    17.2408  17.2438  18.8036  19.5101  20.5003  20.5005  21.4286  21.4287
    21.9373  27.0704  27.2679  27.2680  28.3604  28.4755  28.4756  29.4224
    29.5581  29.5582  31.8909  31.8909  32.0301  32.5938  32.5939  33.4768
    34.0141  34.0580  34.6426  34.6427  35.1892  36.8757  36.8757  37.0088

          k = 0.0000 0.0000 0.3615 (  9936 PWs)   bands (ev):

   -77.5709 -77.5581 -77.5580 -40.9493 -40.8739 -40.8738 -40.8605 -40.8464
   -40.8463 -40.8088 -40.8088 -40.7979  -4.9368  -4.8878  -4.8877  -4.8551
    -4.8551  -4.8333  -4.8333  -4.8163  -4.7592  -4.7592  -4.7175  -4.7174
    -4.7052  -4.7052  -4.6732   5.9987   8.9964  11.1424  12.1802  13.4032
    13.4033  14.2221  14.2222  14.2322  14.7260  14.7399  14.7399  15.2297
    15.2298  16.3264  16.3265  16.3368  16.3554  16.3555  16.9643  16.9668
    16.9670  17.2438  18.6152  19.0776  20.2624  20.2626  21.2309  21.2310
    22.6772  27.5862  27.5862  27.7896  29.1416  29.1753  29.1755  29.6500
    30.1682  30.1683  31.7506  31.9048  31.9048  32.0810  32.0810  32.9185
    33.5187  33.8113  34.4862  34.4862  35.2283  36.8525  37.0086  37.0086

          k = 0.0000 0.0000 0.4132 (  9966 PWs)   bands (ev):

   -77.5709 -77.5581 -77.5580 -40.9492 -40.8739 -40.8738 -40.8605 -40.8464
   -40.8462 -40.8088 -40.8088 -40.7979  -4.9345  -4.8872  -4.8872  -4.8568
    -4.8568  -4.8375  -4.8375  -4.8137  -4.7563  -4.7563  -4.7184  -4.7184
    -4.7033  -4.7033  -4.6724   6.2060   8.7084  11.0997  12.1034  13.6167
    13.6168  14.2580  14.2581  14.4190  14.7285  14.7285  14.7599  15.2400
    15.2401  16.3133  16.3134  16.3311  16.3463  16.3463  16.6880  16.6882
    16.8156  17.2439  18.4777  18.6904  20.0512  20.0513  21.0806  21.0806
    23.4636  27.9323  27.9323  28.4892  29.8444  29.8445  29.9084  29.9106
    30.8250  30.8251  31.1409  31.5632  31.5632  31.9445  31.9446  32.6468
    33.0378  33.6646  34.3251  34.3251  35.2682  36.6781  37.1573  37.1574

          k = 0.0000 0.0000 0.4648 (  9996 PWs)   bands (ev):

   -77.5709 -77.5581 -77.5580 -40.9492 -40.8739 -40.8739 -40.8606 -40.8464
   -40.8462 -40.8088 -40.8088 -40.7979  -4.9326  -4.8868  -4.8868  -4.8583
    -4.8583  -4.8411  -4.8410  -4.8114  -4.7537  -4.7537  -4.7194  -4.7193
    -4.7018  -4.7018  -4.6718   6.4328   8.4044  11.0650  12.0617  13.8441
    13.8441  14.2884  14.2884  14.5954  14.7081  14.7081  14.7878  15.2511
    15.2512  16.2513  16.2514  16.3262  16.3386  16.3387  16.4632  16.4634
    16.6691  17.2439  18.3593  18.3842  19.8760  19.8761  20.9716  20.9717
    24.2808  28.3060  28.3060  29.1419  30.0340  30.1951  30.4341  30.4342
    30.9865  31.0483  31.0483  31.5140  31.5141  32.0385  32.0385  32.5747
    32.5763  33.5504  34.1516  34.1516  35.3082  36.4462  36.8955  36.8956

          k = 0.0000 0.0000 0.5164 (  9966 PWs)   bands (ev):

   -77.5709 -77.5581 -77.5580 -40.9492 -40.8739 -40.8739 -40.8607 -40.8464
   -40.8462 -40.8088 -40.8088 -40.7979  -4.9312  -4.8864  -4.8864  -4.8594
    -4.8594  -4.8437  -4.8437  -4.8097  -4.7515  -4.7515  -4.7203  -4.7203
    -4.7006  -4.7006  -4.6713   6.6699   8.1043  11.0394  12.0424  14.0745
    14.0746  14.3113  14.3114  14.6706  14.6706  14.7451  14.8099  15.2614
    15.2615  16.0707  16.0708  16.3224  16.3328  16.3329  16.3886  16.3887
    16.5458  17.2440  18.0997  18.3253  19.7447  19.7448  20.8983  20.8984
    25.1054  28.7061  28.7061  29.2314  29.7015  30.5052  30.5454  30.5454
    30.8687  30.8687  31.6947  32.1406  32.2062  32.2063  32.2291  32.2291
    32.5696  33.4613  33.9566  33.9567  35.3505  36.0808  36.1090  36.1091

          k = 0.0000 0.0000 0.5681 (  9960 PWs)   bands (ev):

   -77.5709 -77.5581 -77.5580 -40.9491 -40.8739 -40.8739 -40.8607 -40.8464
   -40.8462 -40.8088 -40.8088 -40.7979  -4.9303  -4.8862  -4.8861  -4.8601
    -4.8601  -4.8454  -4.8454  -4.8087  -4.7501  -4.7501  -4.7209  -4.7209
    -4.7000  -4.7000  -4.6710   6.8902   7.8432  11.0237  12.0353  14.2897
    14.2898  14.3256  14.3257  14.6012  14.6012  14.8246  14.8481  15.2687
    15.2688  15.8998  15.8999  16.3201  16.3292  16.3293  16.3741  16.3742
    16.4636  17.2440  17.9310  18.2932  19.6633  19.6634  20.8562  20.8563
    25.8705  28.4328  29.1302  29.1302  30.0583  30.0583  30.0962  30.8221
    31.1001  31.1002  31.7480  32.3070  32.4975  32.4975  32.6316  32.8316
    32.8317  33.3956  33.7512  33.7512  35.4005  35.4068  35.4069  35.6098

          k = 0.0000 0.0000 0.6197 (  9948 PWs)   bands (ev):

   -77.5709 -77.5581 -77.5580 -40.9491 -40.8739 -40.8739 -40.8607 -40.8464
   -40.8462 -40.8088 -40.8088 -40.7979  -4.9300  -4.8861  -4.8861  -4.8603
    -4.8603  -4.8459  -4.8459  -4.8083  -4.7496  -4.7495  -4.7212  -4.7212
    -4.6997  -4.6997  -4.6709   7.0003   7.7190  11.0184  12.0337  14.3304
    14.3305  14.4375  14.4376  14.5094  14.5096  14.8299  14.8851  15.2714
    15.2714  15.8330  15.8332  16.3193  16.3280  16.3280  16.3712  16.3713
    16.4347  17.2440  17.8720  18.2829  19.6357  19.6358  20.8425  20.8425
    26.2766  28.0128  29.5232  29.5232  29.6442  29.6442  30.2418  31.0233
    31.1663  31.1663  31.5216  32.4614  32.6494  32.6494  32.7922  33.1395
    33.1396  33.3614  33.6388  33.6389  35.0722  35.0723  35.3595  35.4379

 ------ SPIN DOWN ----------


          k = 0.0000 0.0000 0.0000 ( 10021 PWs)   bands (ev):

   -77.5709 -77.5580 -77.5579 -40.9495 -40.8738 -40.8738 -40.8600 -40.8464
   -40.8463 -40.8088 -40.8088 -40.7979  -4.9484  -4.8903  -4.8903  -4.8455
    -4.8455  -4.8296  -4.8087  -4.8087  -4.7723  -4.7723  -4.7180  -4.7180
    -4.7151  -4.7151  -4.6771   5.2928   9.8629  11.4238  12.6452  12.6453
    13.3974  13.7651  14.0122  14.0342  14.0343  14.7566  14.7566  15.2091
    15.2092  16.3302  16.3303  16.3669  16.4065  16.4066  17.2436  17.3187
    18.0740  18.0740  19.4399  20.1113  21.6216  21.6217  22.3955  23.1302
    23.1303  23.3394  25.2402  25.2403  25.4684  26.1256  26.1257  27.6540
    27.6541  28.7752  31.9075  31.9075  32.1379  34.3309  34.4391  34.4391
    35.0561  35.3070  35.3070  36.3934  36.7531  36.7531  37.2962  37.5438

          k = 0.0278 0.0481 0.0000 ( 10021 PWs)   bands (ev):

   -77.5708 -77.5581 -77.5579 -40.9489 -40.8738 -40.8734 -40.8600 -40.8465
   -40.8463 -40.8093 -40.8089 -40.7981  -4.9482  -4.8924  -4.8915  -4.8464
    -4.8462  -4.8310  -4.8076  -4.8071  -4.7703  -4.7698  -4.7177  -4.7174
    -4.7160  -4.7152  -4.6772   5.3100   9.8518  11.2860  12.5980  12.7275
    13.4015  13.7540  14.0145  14.0844  14.0936  14.7564  14.7596  15.1995
    15.2148  16.3310  16.3385  16.3614  16.4046  16.4187  17.2429  17.3555
    18.0828  18.0913  19.4565  20.1048  21.5495  21.6169  22.3450  22.7213
    23.1171  23.7404  25.2653  25.3570  25.5389  26.1689  26.2031  27.4845
    27.6066  28.6403  31.9836  32.0898  32.3267  34.1345  34.2108  34.2492
    34.8890  35.1457  35.2594  36.2810  36.7266  36.9410  37.0718  37.6664

          k = 0.0555 0.0962 0.0000 ( 10003 PWs)   bands (ev):

   -77.5706 -77.5583 -77.5579 -40.9473 -40.8739 -40.8723 -40.8598 -40.8467
   -40.8463 -40.8110 -40.8093 -40.7988  -4.9475  -4.8985  -4.8945  -4.8487
    -4.8480  -4.8342  -4.8049  -4.8030  -4.7649  -4.7638  -4.7186  -4.7168
    -4.7157  -4.7154  -4.6776   5.3617   9.8159  10.9653  12.4823  12.8866
    13.4140  13.7526  14.0209  14.2171  14.2243  14.7559  14.7692  15.1711
    15.2317  16.3324  16.3442  16.3597  16.3987  16.4566  17.2426  17.4561
    18.1163  18.1493  19.5089  20.0830  21.3540  21.5784  22.2294  22.2499
    23.0894  24.2008  25.3072  25.6714  25.7266  26.3065  26.4247  27.0463
    27.4792  28.3845  32.1916  32.3169  32.9748  33.4828  33.6362  33.8278
    34.7793  34.8181  35.1290  35.9353  36.4098  37.0115  37.0762  38.1010

          k = 0.0833 0.1443 0.0000 (  9989 PWs)   bands (ev):

   -77.5703 -77.5586 -77.5579 -40.9446 -40.8740 -40.8705 -40.8594 -40.8470
   -40.8463 -40.8138 -40.8100 -40.7998  -4.9464  -4.9078  -4.8985  -4.8515
    -4.8502  -4.8377  -4.8013  -4.7973  -4.7573  -4.7563  -4.7226  -4.7157
    -4.7150  -4.7129  -4.6782   5.4476   9.7479  10.5733  12.3513  13.0317
    13.4344  13.7802  14.0303  14.3419  14.4178  14.7553  14.7896  15.1253
    15.2596  16.3160  16.3295  16.3871  16.3888  16.5223  17.2471  17.5843
    18.1989  18.2663  19.6069  20.0402  21.0790  21.4533  21.7476  22.2215
    23.0744  24.6085  25.3516  25.7371  26.1051  26.5578  26.7223  26.7652
    27.3144  28.1418  32.2269  32.4031  32.9454  33.0291  33.2099  33.8053
    34.4976  34.7546  34.9423  35.3693  36.1949  36.9204  37.1431  38.0548

          k = 0.1111 0.1924 0.0000 ( 10007 PWs)   bands (ev):

   -77.5699 -77.5591 -77.5579 -40.9410 -40.8743 -40.8679 -40.8590 -40.8475
   -40.8463 -40.8176 -40.8109 -40.8011  -4.9450  -4.9191  -4.9025  -4.8540
    -4.8522  -4.8410  -4.7976  -4.7909  -4.7492  -4.7490  -4.7278  -4.7161
    -4.7122  -4.7090  -4.6790   5.5676   9.6400  10.1612  12.2515  13.1464
    13.4625  13.8324  14.0408  14.4340  14.6114  14.7549  14.8303  15.0654
    15.2979  16.2780  16.3145  16.3751  16.4154  16.6180  17.2603  17.6831
    18.3595  18.4685  19.7678  19.9708  20.7626  21.2484  21.2833  22.2962
    23.0983  24.9419  25.1863  25.4035  26.5200  26.9297  26.9367  27.1980
    27.2285  27.9695  31.4491  31.8695  32.4681  33.0241  33.3527  33.8964
    34.1962  34.7251  34.7558  35.4863  36.0154  36.8221  37.2145  37.9571

          k = 0.1389 0.2405 0.0000 ( 10015 PWs)   bands (ev):

   -77.5693 -77.5596 -77.5579 -40.9366 -40.8748 -40.8647 -40.8584 -40.8480
   -40.8463 -40.8221 -40.8121 -40.8026  -4.9438  -4.9309  -4.9057  -4.8558
    -4.8536  -4.8441  -4.7949  -4.7843  -4.7431  -4.7414  -4.7336  -4.7164
    -4.7080  -4.7045  -4.6799   5.7213   9.4892   9.7516  12.2109  13.2391
    13.4977  13.9017  14.0499  14.4767  14.7507  14.7668  14.9016  14.9959
    15.3459  16.2317  16.2793  16.3577  16.4430  16.7454  17.2828  17.7300
    18.5786  18.7777  19.8727  20.0122  20.4295  20.8402  21.0207  22.4396
    23.1773  24.4621  25.2066  25.4635  26.5928  27.1435  27.4338  27.5304
    27.7000  28.0356  30.5761  31.0667  31.6839  33.1415  33.3717  33.8982
    33.9004  34.4962  34.8104  35.8220  36.4313  36.7698  37.2903  37.6966

          k = 0.1666 0.2886 0.0000 ( 10007 PWs)   bands (ev):

   -77.5687 -77.5602 -77.5579 -40.9316 -40.8756 -40.8608 -40.8577 -40.8487
   -40.8463 -40.8271 -40.8135 -40.8043  -4.9460  -4.9391  -4.9075  -4.8569
    -4.8542  -4.8473  -4.7938  -4.7779  -4.7391  -4.7383  -4.7355  -4.7166
    -4.7023  -4.6996  -4.6807   5.9081   9.3008   9.3562  12.2393  13.3180
    13.5392  13.9791  14.0545  14.4748  14.7528  14.8572  14.9227  15.0006
    15.4028  16.1788  16.2224  16.3368  16.4698  16.9057  17.3140  17.7431
    18.8018  19.1906  19.7493  20.0734  20.3651  20.4209  20.8150  22.6209
    23.3158  23.7589  25.4273  25.5276  26.4421  27.0877  28.0220  28.0655
    28.2467  28.3657  29.8226  30.3174  30.9048  32.2912  33.5997  33.6101
    34.2673  34.4819  35.0176  35.6315  36.7680  37.1386  37.1567  37.1992

          k = 0.1944 0.3368 0.0000 ( 10007 PWs)   bands (ev):

   -77.5680 -77.5609 -77.5579 -40.9262 -40.8771 -40.8570 -40.8564 -40.8494
   -40.8463 -40.8321 -40.8151 -40.8062  -4.9558  -4.9389  -4.9076  -4.8570
    -4.8539  -4.8508  -4.7952  -4.7721  -4.7437  -4.7347  -4.7316  -4.7167
    -4.6958  -4.6951  -4.6814   6.1271   8.9819   9.0868  12.3338  13.3868
    13.5863  14.0508  14.0509  14.4467  14.7508  14.8524  14.8959  15.1168
    15.4673  16.1209  16.1486  16.3130  16.4962  17.0994  17.3568  17.7404
    19.0008  19.6075  19.6532  19.7272  20.0266  20.6865  20.7562  22.8178
    23.1629  23.5094  25.5856  25.6283  26.2786  26.9456  28.2554  28.4323
    28.6748  28.7773  29.7105  29.8471  30.2006  31.4254  33.3297  33.6243
    34.0460  35.1083  35.4356  35.4481  36.3170  36.5366  36.7637  37.0987

          k = 0.2222 0.3849 0.0000 (  9987 PWs)   bands (ev):

   -77.5673 -77.5616 -77.5579 -40.9205 -40.8794 -40.8562 -40.8517 -40.8502
   -40.8463 -40.8366 -40.8168 -40.8083  -4.9654  -4.9377  -4.9057  -4.8563
    -4.8549  -4.8526  -4.7994  -4.7671  -4.7467  -4.7321  -4.7293  -4.7165
    -4.6913  -4.6899  -4.6814   6.3768   8.6329   8.8616  12.4852  13.4462
    13.6378  14.0361  14.0876  14.4221  14.7456  14.7915  14.8932  15.2415
    15.5379  16.0599  16.0653  16.2870  16.5224  17.3261  17.4182  17.7326
    19.1758  19.3702  19.4561  19.6587  19.9687  20.8128  21.0770  22.8039
    23.0080  23.7481  25.6188  25.8261  26.1560  26.8102  27.5939  28.1593
    28.9077  29.3728  29.9610  30.0983  30.2094  30.6487  33.0640  33.5148
    33.8366  35.2185  35.5287  35.7916  35.8063  35.9650  36.6121  36.8033

          k = 0.2500 0.4330 0.0000 (  9981 PWs)   bands (ev):

   -77.5666 -77.5623 -77.5580 -40.9147 -40.8827 -40.8554 -40.8510 -40.8470
   -40.8463 -40.8402 -40.8183 -40.8105  -4.9734  -4.9367  -4.9020  -4.8599
    -4.8547  -4.8505  -4.8059  -4.7628  -4.7486  -4.7303  -4.7280  -4.7161
    -4.6884  -4.6864  -4.6796   6.6547   8.3122   8.6391  12.6828  13.4953
    13.6927  14.0079  14.0458  14.4399  14.7341  14.7448  14.8652  15.3685
    15.6124  15.9779  15.9976  16.2600  16.5478  17.5073  17.5843  17.7263
    18.9948  19.3036  19.3179  19.3482  19.9828  21.1208  21.3224  22.8654
    23.1649  24.0176  25.6001  26.0309  26.0998  26.5701  27.0462  27.5648
    28.3612  29.6870  30.1017  30.4676  30.7532  31.0931  32.8172  33.3487
    33.6418  34.7800  35.0275  35.0599  35.9773  36.0233  36.7235  36.7542

          k = 0.2777 0.4811 0.0000 (  9989 PWs)   bands (ev):

   -77.5658 -77.5631 -77.5580 -40.9088 -40.8871 -40.8546 -40.8518 -40.8463
   -40.8427 -40.8426 -40.8194 -40.8128  -4.9793  -4.9359  -4.8965  -4.8658
    -4.8525  -4.8480  -4.8132  -4.7592  -4.7500  -4.7290  -4.7274  -4.7157
    -4.6865  -4.6856  -4.6764   6.9558   8.0217   8.4326  12.9150  13.5324
    13.7496  13.9211  13.9671  14.4964  14.7105  14.7143  14.8308  15.4917
    15.6879  15.8889  15.9358  16.2343  16.5710  17.6320  17.7263  17.8706
    18.6275  19.0048  19.1588  19.5050  19.8989  20.9474  21.9806  23.2343
    23.2607  24.2954  25.4887  26.0558  26.1092  26.2486  26.9729  26.9921
    27.7147  28.9240  30.8450  31.1505  31.4926  31.8710  32.5956  33.1681
    33.4618  34.0830  34.3251  34.8249  35.3638  35.4972  37.3119  37.4184

          k = 0.3055 0.5292 0.0000 (  9969 PWs)   bands (ev):

   -77.5651 -77.5638 -77.5580 -40.9031 -40.8922 -40.8539 -40.8525 -40.8463
   -40.8440 -40.8396 -40.8194 -40.8152  -4.9828  -4.9355  -4.8893  -4.8728
    -4.8499  -4.8461  -4.8196  -4.7563  -4.7515  -4.7281  -4.7273  -4.7153
    -4.6856  -4.6854  -4.6741   7.2664   7.7630   8.2609  13.1671  13.5563
    13.7363  13.8068  13.9171  14.5620  14.6702  14.6986  14.8076  15.6054
    15.7598  15.7984  15.8764  16.2139  16.5890  17.7358  17.7970  18.1759
    18.2834  18.7198  19.0342  19.6447  19.8101  20.7720  22.6419  23.2809
    23.5375  24.5380  25.2594  25.7764  26.0510  26.4823  26.6904  27.0126
    27.1348  28.2797  31.5623  31.8266  32.1825  32.4330  32.6030  33.0107
    33.2845  33.4872  33.6354  34.5852  34.7541  34.9862  37.8676  38.1689

          k = 0.3333 0.5773 0.0000 (  9957 PWs)   bands (ev):

   -77.5645 -77.5644 -77.5580 -40.8976 -40.8975 -40.8533 -40.8531 -40.8463
   -40.8444 -40.8385 -40.8178 -40.8177  -4.9840  -4.9353  -4.8810  -4.8810
    -4.8470  -4.8470  -4.8222  -4.7536  -4.7536  -4.7276  -4.7276  -4.7151
    -4.6853  -4.6853  -4.6733   7.5369   7.5372   8.1759  13.3591  13.5665
    13.5666  13.8628  13.8629  14.6200  14.6200  14.6942  14.8004  15.7058
    15.7060  15.8209  15.8211  16.2052  16.5966  17.7480  18.0026  18.0030
    18.4631  18.4637  18.9682  19.7384  19.7384  20.7017  23.0191  23.4035
    23.4043  24.6508  25.1839  25.8212  25.8216  26.7339  26.7345  26.8572
    26.8580  28.0048  32.0330  32.0334  32.5036  32.5438  32.9750  32.9751
    33.0964  33.2233  33.2235  34.4319  34.4320  34.7646  38.2307  38.7836

          k = 0.3472 0.5532 0.0000 (  9967 PWs)   bands (ev):

   -77.5647 -77.5642 -77.5580 -40.9002 -40.8949 -40.8535 -40.8529 -40.8463
   -40.8443 -40.8387 -40.8190 -40.8163  -4.9837  -4.9354  -4.8855  -4.8765
    -4.8489  -4.8456  -4.8216  -4.7550  -4.7524  -4.7278  -4.7274  -4.7151
    -4.6854  -4.6853  -4.6735   7.4367   7.6146   8.2088  13.2817  13.5669
    13.6350  13.8357  13.8897  14.5949  14.6435  14.6950  14.8020  15.6589
    15.7510  15.7954  15.8447  16.2079  16.5942  17.7355  17.9155  18.1193
    18.3462  18.5583  18.9992  19.7121  19.7593  20.7198  22.9615  23.1861
    23.6008  24.6149  25.1802  25.7594  25.9294  26.6467  26.6938  26.8668
    27.0390  28.0618  31.9320  31.9906  32.4313  32.4479  32.8807  32.9375
    33.0993  33.2994  33.4191  34.4301  34.5281  34.8681  38.0055  38.6643

          k = 0.3611 0.5292 0.0000 (  9985 PWs)   bands (ev):

   -77.5650 -77.5639 -77.5580 -40.9029 -40.8923 -40.8538 -40.8526 -40.8463
   -40.8441 -40.8393 -40.8202 -40.8147  -4.9829  -4.9355  -4.8903  -4.8720
    -4.8515  -4.8442  -4.8199  -4.7566  -4.7512  -4.7281  -4.7273  -4.7153
    -4.6857  -4.6853  -4.6740   7.3449   7.6359   8.3091  13.1360  13.5643
    13.7567  13.8093  13.9155  14.5712  14.6626  14.6973  14.8069  15.6118
    15.7714  15.7931  15.8625  16.2164  16.5865  17.6872  17.8900  18.2368
    18.2428  18.5921  19.1007  19.6939  19.7643  20.7706  22.8392  22.9266
    23.7655  24.5067  25.1605  25.7789  25.9535  26.6387  26.6462  27.0034
    27.2597  28.2044  31.7633  31.8063  32.2476  32.3117  32.6555  32.8306
    33.0536  33.5824  33.7727  34.3787  34.7898  35.1540  37.5287  38.2392

          k = 0.3750 0.5051 0.0000 (  9981 PWs)   bands (ev):

   -77.5653 -77.5636 -77.5580 -40.9054 -40.8898 -40.8541 -40.8523 -40.8463
   -40.8437 -40.8402 -40.8214 -40.8130  -4.9814  -4.9356  -4.8953  -4.8674
    -4.8543  -4.8428  -4.8176  -4.7584  -4.7500  -4.7284  -4.7272  -4.7155
    -4.6859  -4.6853  -4.6748   7.2616   7.6190   8.4584  12.9680  13.5594
    13.7842  13.8849  13.9400  14.5495  14.6772  14.7005  14.8149  15.5645
    15.7492  15.8329  15.8742  16.2308  16.5728  17.6241  17.9061  18.1350
    18.3710  18.5838  19.2534  19.6859  19.7589  20.8455  22.6557  22.6789
    23.8683  24.3380  25.1247  25.7869  25.8874  26.7212  26.8000  27.1437
    27.5134  28.4049  31.5245  31.5715  32.1059  32.1124  32.3695  32.7093
    33.0040  33.9358  34.1729  34.3017  35.1456  35.5192  36.9968  37.7628

          k = 0.3889 0.4811 0.0000 (  9979 PWs)   bands (ev):

   -77.5656 -77.5633 -77.5580 -40.9077 -40.8873 -40.8544 -40.8520 -40.8463
   -40.8433 -40.8413 -40.8226 -40.8112  -4.9794  -4.9358  -4.9006  -4.8628
    -4.8572  -4.8415  -4.8147  -4.7604  -4.7488  -4.7286  -4.7272  -4.7159
    -4.6863  -4.6853  -4.6759   7.1870   7.5852   8.6344  12.7866  13.5526
    13.7607  13.9629  14.0107  14.5300  14.6875  14.7043  14.8259  15.5176
    15.7290  15.8710  15.8803  16.2503  16.5533  17.5688  17.9399  18.0414
    18.5007  18.5587  19.4313  19.6909  19.7493  20.9311  22.3956  22.4900
    23.9159  24.1287  25.0703  25.5411  26.0702  26.8529  27.0663  27.2872
    27.7958  28.6506  31.2407  31.3237  31.8663  32.0077  32.0581  32.6045
    32.9583  34.2108  34.3127  34.5925  35.5486  35.8874  36.4557  37.3224

          k = 0.4028 0.4570 0.0000 (  9995 PWs)   bands (ev):

   -77.5658 -77.5631 -77.5580 -40.9098 -40.8850 -40.8546 -40.8518 -40.8463
   -40.8428 -40.8425 -40.8237 -40.8096  -4.9769  -4.9360  -4.9059  -4.8600
    -4.8584  -4.8403  -4.8116  -4.7627  -4.7476  -4.7289  -4.7272  -4.7164
    -4.6866  -4.6854  -4.6770   7.1211   7.5465   8.8238  12.5959  13.5447
    13.7392  13.9839  14.1301  14.5130  14.6937  14.7085  14.8398  15.4715
    15.7109  15.8819  15.9080  16.2734  16.5284  17.5268  17.9562  17.9833
    18.5288  18.6271  19.6206  19.7130  19.7411  21.0066  22.1706  22.2799
    23.8970  23.9270  24.9722  25.3141  26.3008  27.0242  27.3629  27.4325
    28.1029  28.9353  30.9385  31.0775  31.5961  31.7378  31.9349  32.5170
    32.9175  34.1034  34.6958  35.0224  35.9057  35.9913  36.1249  37.0529

          k = 0.4166 0.4330 0.0000 (  9987 PWs)   bands (ev):

   -77.5660 -77.5629 -77.5580 -40.9118 -40.8829 -40.8548 -40.8516 -40.8463
   -40.8437 -40.8422 -40.8248 -40.8081  -4.9739  -4.9362  -4.9114  -4.8626
    -4.8543  -4.8393  -4.8082  -4.7651  -4.7465  -4.7291  -4.7271  -4.7169
    -4.6869  -4.6857  -4.6782   7.0639   7.5086   9.0188  12.4000  13.5362
    13.7201  14.0028  14.2406  14.4985  14.6963  14.7126  14.8562  15.4267
    15.6949  15.8805  15.9444  16.2985  16.4994  17.4973  17.8799  18.0328
    18.4992  18.7439  19.7388  19.7574  19.8143  21.0376  22.0164  22.0549
    23.6571  23.9191  24.7833  25.1769  26.5547  27.2228  27.5781  27.6653
    28.4294  29.2529  30.6310  30.8402  31.3202  31.4178  31.8776  32.4406
    32.8820  33.9704  35.0749  35.3977  35.4574  36.0036  36.4206  37.1894

          k = 0.4305 0.4089 0.0000 (  9993 PWs)   bands (ev):

   -77.5662 -77.5627 -77.5580 -40.9134 -40.8809 -40.8550 -40.8514 -40.8463
   -40.8449 -40.8416 -40.8259 -40.8067  -4.9704  -4.9365  -4.9169  -4.8649
    -4.8505  -4.8383  -4.8048  -4.7677  -4.7454  -4.7293  -4.7272  -4.7174
    -4.6873  -4.6861  -4.6792   7.0154   7.4742   9.2136  12.2035  13.5277
    13.7035  14.0193  14.3401  14.4864  14.6956  14.7165  14.8746  15.3840
    15.6812  15.8772  15.9800  16.3237  16.4678  17.4781  17.8132  18.0855
    18.4724  18.8445  19.7459  19.8298  20.0067  20.9876  21.8211  21.9704
    23.4196  23.9033  24.5327  25.1116  26.8129  27.4405  27.7213  27.9652
    28.7670  29.5937  30.3249  30.6171  31.0532  31.1062  31.8317  32.3695
    32.8518  33.7981  34.9032  35.4406  35.7032  35.8931  36.8674  37.5646

          k = 0.4444 0.3849 0.0000 ( 10005 PWs)   bands (ev):

   -77.5663 -77.5626 -77.5580 -40.9148 -40.8792 -40.8552 -40.8512 -40.8463
   -40.8460 -40.8410 -40.8268 -40.8056  -4.9665  -4.9370  -4.9222  -4.8668
    -4.8473  -4.8376  -4.8013  -4.7705  -4.7444  -4.7294  -4.7272  -4.7180
    -4.6875  -4.6866  -4.6800   6.9757   7.4450   9.4019  12.0129  13.5200
    13.6897  14.0332  14.4267  14.4766  14.6919  14.7199  14.8940  15.3444
    15.6699  15.8732  16.0145  16.3472  16.4352  17.4664  17.7568  18.1380
    18.4494  18.9238  19.7653  19.9340  20.1915  20.8622  21.5833  22.0267
    23.1946  23.8860  24.2723  25.0738  27.0608  27.6713  27.8579  28.2605
    29.1021  29.9331  30.0242  30.4139  30.8096  30.8222  31.7953  32.2981
    32.8270  33.5731  34.4467  35.4192  35.7821  36.3232  37.3136  37.9955

          k = 0.4583 0.3608 0.0000 ( 10017 PWs)   bands (ev):

   -77.5664 -77.5625 -77.5580 -40.9159 -40.8777 -40.8553 -40.8511 -40.8470
   -40.8463 -40.8405 -40.8276 -40.8046  -4.9623  -4.9378  -4.9271  -4.8683
    -4.8446  -4.8369  -4.7979  -4.7733  -4.7436  -4.7295  -4.7272  -4.7185
    -4.6878  -4.6872  -4.6806   6.9448   7.4216   9.5750  11.8371  13.5133
    13.6788  14.0442  14.4690  14.4994  14.6850  14.7228  14.9131  15.3096
    15.6610  15.8693  16.0468  16.3675  16.4038  17.4598  17.7116  18.1861
    18.4310  18.9808  19.7984  20.0693  20.3600  20.7042  21.3464  22.1411
    22.9930  23.8704  24.0260  25.0488  27.2845  27.9092  27.9819  28.5511
    29.4104  29.7331  30.1534  30.2377  30.6103  30.6734  31.7676  32.2210
    32.8078  33.2941  34.0477  35.2027  36.0846  36.7367  37.7503  38.4311

          k = 0.4722 0.3368 0.0000 ( 10022 PWs)   bands (ev):

   -77.5665 -77.5624 -77.5580 -40.9167 -40.8766 -40.8554 -40.8510 -40.8478
   -40.8463 -40.8400 -40.8283 -40.8040  -4.9579  -4.9395  -4.9310  -4.8694
    -4.8426  -4.8365  -4.7948  -4.7760  -4.7429  -4.7296  -4.7272  -4.7189
    -4.6879  -4.6878  -4.6809   6.9227   7.4046   9.7205  11.6892  13.5083
    13.6709  14.0522  14.4637  14.5577  14.6744  14.7249  14.9300  15.2814
    15.6547  15.8661  16.0748  16.3761  16.3832  17.4564  17.6785  18.2252
    18.4176  19.0176  19.8436  20.2302  20.4999  20.5509  21.1154  22.2719
    22.8287  23.8118  23.8585  25.0321  27.4676  28.0840  28.1454  28.8366
    29.4597  29.6475  30.0265  30.0978  30.4888  30.8695  31.7480  32.1360
    32.7940  32.9839  33.7327  35.0597  36.3284  37.1114  38.1605  38.8406

          k = 0.4861 0.3127 0.0000 ( 10010 PWs)   bands (ev):

   -77.5665 -77.5624 -77.5580 -40.9172 -40.8759 -40.8554 -40.8510 -40.8483
   -40.8463 -40.8397 -40.8287 -40.8036  -4.9535  -4.9426  -4.9330  -4.8701
    -4.8414  -4.8362  -4.7923  -4.7782  -4.7425  -4.7296  -4.7272  -4.7192
    -4.6882  -4.6880  -4.6811   6.9095   7.3944   9.8208  11.5873  13.5052
    13.6662  14.0571  14.4605  14.6024  14.6587  14.7262  14.9419  15.2627
    15.6509  15.8640  16.0947  16.3563  16.3931  17.4549  17.6583  18.2509
    18.4095  19.0379  19.8904  20.4039  20.4326  20.5949  20.9011  22.3807
    22.7187  23.6561  23.8510  25.0225  27.5905  28.1528  28.3555  29.1088
    29.2275  29.7662  29.7776  30.0062  30.4681  31.1472  31.7363  32.0568
    32.7020  32.7857  33.5307  34.9807  36.4897  37.3992  38.5004  39.1713

          k = 0.5000 0.2887 0.0000 ( 10026 PWs)   bands (ev):

   -77.5666 -77.5624 -77.5580 -40.9173 -40.8757 -40.8554 -40.8510 -40.8485
   -40.8463 -40.8396 -40.8288 -40.8034  -4.9507  -4.9451  -4.9335  -4.8703
    -4.8410  -4.8361  -4.7913  -4.7792  -4.7424  -4.7296  -4.7272  -4.7193
    -4.6883  -4.6881  -4.6811   6.9050   7.3909   9.8571  11.5504  13.5041
    13.6646  14.0587  14.4594  14.6319  14.6390  14.7267  14.9462  15.2561
    15.6496  15.8633  16.1021  16.3488  16.3965  17.4545  17.6515  18.2599
    18.4068  19.0444  19.9130  20.3853  20.5195  20.6290  20.7721  22.4249
    22.6795  23.5968  23.8484  25.0193  27.6343  28.1774  28.4574  29.1183
    29.2800  29.6096  29.7919  29.9741  30.4830  31.2780  31.7324  32.0217
    32.5730  32.7829  33.4614  34.9556  36.5465  37.5144  38.6515  39.3118

          k = 0.4583 0.2646 0.0000 ( 10008 PWs)   bands (ev):

   -77.5667 -77.5622 -77.5580 -40.9181 -40.8756 -40.8556 -40.8508 -40.8494
   -40.8463 -40.8389 -40.8279 -40.8034  -4.9499  -4.9446  -4.9334  -4.8700
    -4.8410  -4.8371  -4.7902  -4.7796  -4.7425  -4.7300  -4.7275  -4.7192
    -4.6907  -4.6862  -4.6819   6.7735   7.5435   9.8614  11.5624  13.4931
    13.6573  14.0600  14.4403  14.6321  14.6493  14.7358  14.9427  15.2442
    15.6268  15.8873  16.1085  16.3559  16.3965  17.4505  17.5738  18.2308
    18.5027  19.0869  19.7503  20.2506  20.6343  20.6616  20.8888  22.3991
    22.6853  23.6059  23.6519  25.3879  27.5357  27.7936  28.8523  28.9206
    28.9446  29.7288  30.1439  30.1933  30.3086  31.3586  31.4827  31.7097
    32.7757  33.1889  33.3461  35.2253  36.4709  37.5999  38.4592  39.4269

          k = 0.4167 0.2406 0.0000 (  9988 PWs)   bands (ev):

   -77.5671 -77.5618 -77.5580 -40.9203 -40.8754 -40.8560 -40.8518 -40.8504
   -40.8463 -40.8369 -40.8256 -40.8033  -4.9477  -4.9433  -4.9330  -4.8691
    -4.8412  -4.8395  -4.7877  -4.7807  -4.7426  -4.7310  -4.7282  -4.7190
    -4.6937  -4.6846  -4.6840   6.5466   7.8330   9.8746  11.5982  13.4620
    13.6370  14.0627  14.3913  14.6325  14.6715  14.7625  14.9310  15.2097
    15.5765  15.9412  16.1269  16.3751  16.3966  17.4081  17.4383  18.1586
    18.7214  19.1959  19.4499  20.0265  20.6515  20.9013  21.0465  22.2348
    22.7025  23.3832  23.8174  26.0881  27.2937  27.3170  28.4622  28.5561
    29.3405  29.9609  30.0636  30.6225  30.6732  30.7628  31.1381  31.8899
    33.0501  33.1669  33.9021  35.8417  36.2987  37.7979  38.1186  39.3202

          k = 0.3750 0.2165 0.0000 (  9984 PWs)   bands (ev):

   -77.5676 -77.5613 -77.5580 -40.9236 -40.8751 -40.8565 -40.8548 -40.8499
   -40.8463 -40.8339 -40.8227 -40.8031  -4.9440  -4.9420  -4.9315  -4.8677
    -4.8425  -4.8414  -4.7849  -4.7826  -4.7423  -4.7328  -4.7296  -4.7186
    -4.6973  -4.6875  -4.6833   6.3194   8.1624   9.8972  11.6573  13.4154
    13.6076  14.0646  14.3228  14.6317  14.6942  14.8043  14.9078  15.1554
    15.5185  16.0049  16.1549  16.3967  16.4014  17.2252  17.4172  18.0686
    18.9872  19.1388  19.3211  19.8329  20.6852  21.0827  21.1162  21.9355
    22.7308  23.4889  24.0905  26.8555  26.8568  26.9913  28.0014  28.1728
    29.5939  29.6546  30.4040  30.4525  30.4942  31.1135  31.2125  32.3622
    32.9846  33.3641  34.6805  36.0986  36.6012  37.7540  38.0278  38.7419

          k = 0.3333 0.1925 0.0000 (  9990 PWs)   bands (ev):

   -77.5682 -77.5608 -77.5580 -40.9275 -40.8748 -40.8581 -40.8571 -40.8493
   -40.8463 -40.8302 -40.8197 -40.8028  -4.9416  -4.9390  -4.9281  -4.8657
    -4.8454  -4.8415  -4.7851  -4.7833  -4.7409  -4.7353  -4.7318  -4.7181
    -4.7012  -4.6919  -4.6821   6.1091   8.5102   9.9311  11.7385  13.3593
    13.5733  14.0641  14.2399  14.6270  14.7123  14.8578  14.8685  15.0852
    15.4605  16.0704  16.1891  16.3968  16.4276  17.0510  17.3872  17.9771
    18.8542  19.2640  19.3265  19.8006  20.7451  20.8630  21.2829  21.7873
    22.7692  23.8090  24.4605  26.4190  26.6785  27.3713  27.8023  27.8099
    29.1875  29.3482  29.8770  30.7362  30.9169  31.6348  31.7020  32.8675
    32.9241  33.6477  35.4779  35.9086  37.3402  37.3787  37.8772  38.0655

          k = 0.2917 0.1684 0.0000 ( 10010 PWs)   bands (ev):

   -77.5687 -77.5602 -77.5580 -40.9317 -40.8745 -40.8614 -40.8577 -40.8487
   -40.8463 -40.8262 -40.8168 -40.8024  -4.9422  -4.9329  -4.9230  -4.8633
    -4.8478  -4.8414  -4.7881  -4.7837  -4.7387  -4.7381  -4.7350  -4.7175
    -4.7051  -4.6969  -4.6811   5.9204   8.8634   9.9816  11.8403  13.2982
    13.5378  14.0603  14.1457  14.6136  14.7231  14.8103  14.9184  15.0042
    15.4057  16.1337  16.2255  16.3970  16.4462  16.8944  17.3499  17.8917
    18.6142  19.1494  19.5252  19.9680  20.5006  20.8478  21.4029  21.8075
    22.8166  24.2411  24.9066  26.0041  26.3822  27.0509  27.4546  28.2511
    28.6072  29.0714  29.5243  31.2817  31.4110  32.0485  32.1757  33.0241
    33.3888  33.9442  35.7017  36.3154  36.7411  36.8961  37.4940  38.3120

          k = 0.2500 0.1443 0.0000 ( 10012 PWs)   bands (ev):

   -77.5692 -77.5597 -77.5580 -40.9358 -40.8743 -40.8644 -40.8583 -40.8481
   -40.8463 -40.8222 -40.8143 -40.8018  -4.9432  -4.9258  -4.9168  -4.8605
    -4.8494  -4.8411  -4.7916  -4.7862  -4.7431  -4.7394  -4.7340  -4.7170
    -4.7088  -4.7021  -4.6802   5.7553   9.2017  10.0621  11.9603  13.2343
    13.5037  14.0444  14.0536  14.5825  14.7020  14.7553  14.9215  14.9818
    15.3561  16.1924  16.2603  16.3974  16.4507  16.7592  17.3107  17.8128
    18.4267  18.9028  19.7435  20.0561  20.3259  21.0153  21.4856  21.8788
    22.8709  24.7320  25.3932  25.6098  26.1296  26.6757  27.1356  28.0343
    28.0507  28.8308  29.9447  31.8629  31.9175  32.1872  32.7294  33.3242
    33.8970  34.2343  35.5455  35.9949  36.0885  37.0974  37.1608  38.5317

          k = 0.2083 0.1203 0.0000 ( 10008 PWs)   bands (ev):

   -77.5697 -77.5592 -77.5580 -40.9397 -40.8741 -40.8671 -40.8588 -40.8476
   -40.8463 -40.8185 -40.8123 -40.8011  -4.9445  -4.9181  -4.9102  -4.8573
    -4.8500  -4.8401  -4.7953  -4.7901  -4.7485  -4.7451  -4.7294  -4.7165
    -4.7118  -4.7069  -4.6793   5.6147   9.4862  10.2041  12.0948  13.1655
    13.4728  13.9426  14.0449  14.5198  14.6027  14.7508  14.8518  15.0433
    15.3126  16.2449  16.2900  16.3979  16.4385  16.6466  17.2773  17.7337
    18.2906  18.6368  19.8434  19.9007  20.5723  21.2624  21.5410  21.9655
    22.9296  25.2307  25.2358  25.7130  26.1120  26.3373  26.8503  27.5030
    27.5402  28.6331  30.7314  32.2248  32.4180  32.4483  33.2882  33.6984
    34.2657  34.3440  35.3731  35.4121  35.5574  36.9338  37.7357  38.4045

          k = 0.1667 0.0962 0.0000 ( 10010 PWs)   bands (ev):

   -77.5701 -77.5588 -77.5580 -40.9430 -40.8740 -40.8695 -40.8592 -40.8472
   -40.8463 -40.8151 -40.8108 -40.8002  -4.9457  -4.9102  -4.9037  -4.8541
    -4.8497  -4.8385  -4.7990  -4.7949  -4.7547  -4.7518  -4.7248  -4.7160
    -4.7142  -4.7109  -4.6786   5.4991   9.6738  10.4410  12.2385  13.0839
    13.4464  13.8512  14.0354  14.4190  14.4734  14.7530  14.8059  15.0991
    15.2761  16.2894  16.3121  16.3988  16.4130  16.5570  17.2553  17.6424
    18.1976  18.3986  19.6737  20.0002  20.8707  21.5770  21.5829  22.0600
    22.9889  24.8577  25.5938  25.6537  26.0671  26.5772  26.6038  27.0340
    27.0822  28.4898  31.5103  32.3105  32.8650  33.0170  33.8409  33.8603
    34.0644  34.1170  35.3105  35.3789  35.6651  36.7771  38.0239  38.0472

          k = 0.1250 0.0722 0.0000 ( 10000 PWs)   bands (ev):

   -77.5705 -77.5585 -77.5580 -40.9458 -40.8739 -40.8713 -40.8596 -40.8468
   -40.8463 -40.8124 -40.8098 -40.7993  -4.9469  -4.9027  -4.8981  -4.8509
    -4.8487  -4.8361  -4.8026  -4.7999  -4.7610  -4.7589  -4.7208  -4.7159
    -4.7156  -4.7141  -4.6780   5.4090   9.7748  10.7482  12.3826  12.9781
    13.4252  13.7845  14.0263  14.2931  14.3312  14.7548  14.7800  15.1456
    15.2471  16.3246  16.3253  16.3822  16.4002  16.4894  17.2450  17.5331
    18.1371  18.2291  19.5613  20.0583  21.1605  21.5995  21.9570  22.1609
    23.0440  24.4793  25.4453  25.6877  25.9325  26.4019  26.6470  26.9557
    27.0698  28.4265  31.9063  32.7774  32.9785  33.2521  33.5397  33.7933
    34.3682  34.4001  35.2489  35.7657  36.0909  36.6974  37.6939  38.0946

          k = 0.0833 0.0481 0.0000 ( 10018 PWs)   bands (ev):

   -77.5707 -77.5582 -77.5579 -40.9478 -40.8738 -40.8727 -40.8598 -40.8466
   -40.8463 -40.8104 -40.8092 -40.7986  -4.9477  -4.8963  -4.8938  -4.8482
    -4.8473  -4.8332  -4.8057  -4.8043  -4.7668  -4.7655  -4.7177  -4.7171
    -4.7163  -4.7153  -4.6775   5.3445   9.8279  11.0630  12.5132  12.8445
    13.4098  13.7538  14.0188  14.1672  14.1924  14.7559  14.7660  15.1805
    15.2261  16.3304  16.3491  16.3549  16.4025  16.4427  17.2424  17.4243
    18.1001  18.1326  19.4910  20.0904  21.4048  21.6127  22.2653  22.3645
    23.0895  24.0860  25.3326  25.5066  25.7024  26.2511  26.3599  27.2295
    27.4388  28.4914  31.9622  32.5294  32.6658  33.5361  33.9684  34.0448
    34.6705  34.8346  35.2387  36.1074  36.5556  36.7174  37.3528  37.9462

          k = 0.0417 0.0241 0.0000 ( 10023 PWs)   bands (ev):

   -77.5708 -77.5581 -77.5579 -40.9491 -40.8738 -40.8735 -40.8600 -40.8464
   -40.8463 -40.8092 -40.8089 -40.7981  -4.9483  -4.8919  -4.8912  -4.8462
    -4.8460  -4.8307  -4.8079  -4.8075  -4.7708  -4.7704  -4.7178  -4.7176
    -4.7158  -4.7152  -4.6772   5.3057   9.8546  11.3184  12.6091  12.7092
    13.4005  13.7560  14.0140  14.0710  14.0810  14.7564  14.7588  15.2019
    15.2134  16.3307  16.3366  16.3628  16.4053  16.4155  17.2430  17.3464
    18.0803  18.0871  19.4523  20.1065  21.5662  21.6195  22.3565  22.7872
    23.1197  23.6772  25.2635  25.3242  25.5219  26.1574  26.1845  27.5309
    27.6128  28.6713  31.9438  32.0870  32.2621  34.1863  34.2417  34.3262
    34.9089  35.1767  35.2770  36.3078  36.7736  36.8683  37.1137  37.6265

          k = 0.0000 0.0000 0.0000 ( 10021 PWs)   bands (ev):

   -77.5709 -77.5580 -77.5579 -40.9495 -40.8738 -40.8738 -40.8600 -40.8464
   -40.8463 -40.8088 -40.8088 -40.7979  -4.9484  -4.8903  -4.8903  -4.8455
    -4.8455  -4.8296  -4.8087  -4.8087  -4.7723  -4.7723  -4.7180  -4.7180
    -4.7151  -4.7151  -4.6771   5.2928   9.8629  11.4238  12.6452  12.6453
    13.3974  13.7651  14.0122  14.0342  14.0343  14.7566  14.7566  15.2091
    15.2092  16.3302  16.3303  16.3669  16.4065  16.4066  17.2436  17.3187
    18.0740  18.0740  19.4399  20.1113  21.6216  21.6217  22.3955  23.1302
    23.1303  23.3394  25.2402  25.2403  25.4684  26.1256  26.1257  27.6540
    27.6541  28.7752  31.9075  31.9075  32.1379  34.3309  34.4391  34.4391
    35.0561  35.3070  35.3070  36.3934  36.7531  36.7531  37.2962  37.5438

          k = 0.0000 0.0000 0.0516 ( 10021 PWs)   bands (ev):

   -77.5709 -77.5580 -77.5579 -40.9495 -40.8738 -40.8738 -40.8600 -40.8464
   -40.8463 -40.8088 -40.8088 -40.7979  -4.9481  -4.8902  -4.8902  -4.8458
    -4.8457  -4.8293  -4.8094  -4.8094  -4.7719  -4.7719  -4.7176  -4.7176
    -4.7151  -4.7151  -4.6770   5.3075   9.8503  11.4142  12.6614  12.6615
    13.4191  13.5834  14.0393  14.0394  14.1519  14.7564  14.7565  15.2092
    15.2092  16.3303  16.3304  16.3661  16.4051  16.4052  17.2436  17.3198
    18.0508  18.0509  19.5162  20.0498  21.5744  21.5745  22.0859  22.9938
    22.9939  23.6732  25.4202  25.4203  25.5763  26.1707  26.1709  27.7098
    27.7098  28.7935  31.9063  31.9063  32.1385  34.3115  34.3830  34.3831
    35.0603  35.2791  35.2791  36.2671  36.7664  36.7664  37.2286  37.3531

          k = 0.0000 0.0000 0.1033 ( 10003 PWs)   bands (ev):

   -77.5709 -77.5580 -77.5579 -40.9494 -40.8738 -40.8738 -40.8601 -40.8464
   -40.8463 -40.8088 -40.8088 -40.7979  -4.9472  -4.8901  -4.8900  -4.8466
    -4.8465  -4.8282  -4.8116  -4.8116  -4.7710  -4.7710  -4.7163  -4.7163
    -4.7152  -4.7152  -4.6767   5.3517   9.8105  11.3871  12.7099  12.7100
    13.2948  13.4826  14.0540  14.0541  14.3242  14.7559  14.7560  15.2094
    15.2095  16.3306  16.3307  16.3637  16.4008  16.4009  17.2436  17.3183
    17.9809  17.9810  19.7054  19.9180  21.4415  21.4416  21.5570  22.6815
    22.6816  24.2748  25.8634  25.8635  25.8835  26.2973  26.2974  27.8773
    27.8773  28.8483  31.9029  31.9030  32.1399  34.2118  34.2118  34.2546
    35.0728  35.2010  35.2010  35.9412  36.8035  36.8036  36.9473  37.0693

          k = 0.0000 0.0000 0.1549 (  9991 PWs)   bands (ev):

   -77.5709 -77.5581 -77.5579 -40.9494 -40.8738 -40.8738 -40.8601 -40.8464
   -40.8463 -40.8088 -40.8088 -40.7979  -4.9457  -4.8897  -4.8897  -4.8478
    -4.8478  -4.8265  -4.8150  -4.8150  -4.7694  -4.7694  -4.7154  -4.7154
    -4.7144  -4.7144  -4.6762   5.4250   9.7379  11.3463  12.7901  12.7902
    12.9963  13.5834  14.0776  14.0777  14.4587  14.7550  14.7550  15.2102
    15.2103  16.3310  16.3311  16.3599  16.3941  16.3942  17.2436  17.3036
    17.8635  17.8636  19.5822  20.1685  21.0117  21.2442  21.2443  22.3220
    22.3222  24.9402  26.3518  26.4410  26.4411  26.4851  26.4851  28.1550
    28.1551  28.9393  31.8980  31.8980  32.1402  33.9254  33.9255  34.1636
    35.0856  35.0856  35.0929  35.5055  36.3331  36.8578  36.8579  36.8719

          k = 0.0000 0.0000 0.2066 (  9960 PWs)   bands (ev):

   -77.5709 -77.5581 -77.5579 -40.9494 -40.8738 -40.8738 -40.8602 -40.8464
   -40.8463 -40.8088 -40.8088 -40.7979  -4.9438  -4.8893  -4.8893  -4.8494
    -4.8494  -4.8243  -4.8192  -4.8192  -4.7673  -4.7673  -4.7157  -4.7157
    -4.7122  -4.7122  -4.6755   5.5271   9.6245  11.2969  12.7190  12.9013
    12.9014  13.7155  14.1085  14.1086  14.5578  14.7534  14.7534  15.2121
    15.2122  16.3314  16.3315  16.3549  16.3855  16.3856  17.2437  17.2657
    17.6985  17.6986  19.3109  20.4829  20.6606  21.0074  21.0075  21.9789
    21.9790  25.6355  26.7153  26.7154  26.9412  27.0880  27.0881  28.5365
    28.5365  29.0659  31.8927  31.8927  32.1349  33.5409  33.5409  34.0397
    34.9471  34.9471  35.0205  35.1199  35.5193  36.7852  36.7852  36.9232

          k = 0.0000 0.0000 0.2582 (  9954 PWs)   bands (ev):

   -77.5709 -77.5581 -77.5579 -40.9493 -40.8738 -40.8738 -40.8603 -40.8464
   -40.8462 -40.8088 -40.8088 -40.7979  -4.9415  -4.8888  -4.8888  -4.8513
    -4.8513  -4.8239  -4.8239  -4.8218  -4.7649  -4.7648  -4.7161  -4.7161
    -4.7098  -4.7098  -4.6748   5.6574   9.4633  11.2438  12.4843  13.0420
    13.0421  13.8723  14.1446  14.1447  14.6302  14.7509  14.7509  15.2157
    15.2158  16.3313  16.3314  16.3491  16.3757  16.3758  17.1975  17.2438
    17.4887  17.4888  19.0406  19.9804  20.7534  20.7535  21.2590  21.6780
    21.6781  26.3487  26.9775  26.9775  27.6191  27.7730  27.7731  29.0092
    29.0093  29.2273  31.8891  31.8891  32.1117  33.0875  33.0875  33.8625
    34.5178  34.6747  34.7971  34.7971  35.1525  36.7941  36.7941  36.9955

          k = 0.0000 0.0000 0.3099 (  9972 PWs)   bands (ev):

   -77.5709 -77.5581 -77.5579 -40.9493 -40.8738 -40.8738 -40.8603 -40.8464
   -40.8462 -40.8088 -40.8088 -40.7979  -4.9391  -4.8883  -4.8883  -4.8532
    -4.8532  -4.8287  -4.8287  -4.8190  -4.7621  -4.7621  -4.7167  -4.7167
    -4.7074  -4.7074  -4.6740   5.8151   9.2521  11.1913  12.3044  13.2102
    13.2103  14.0470  14.1834  14.1835  14.6842  14.7467  14.7467  15.2215
    15.2216  16.3302  16.3303  16.3430  16.3654  16.3655  17.0959  17.2407
    17.2409  17.2438  18.8036  19.5101  20.5003  20.5005  21.4286  21.4287
    21.9373  27.0704  27.2679  27.2680  28.3605  28.4755  28.4756  29.4224
    29.5581  29.5582  31.8909  31.8909  32.0301  32.5938  32.5939  33.4768
    34.0141  34.0581  34.6426  34.6426  35.1892  36.8757  36.8757  37.0088

          k = 0.0000 0.0000 0.3615 (  9936 PWs)   bands (ev):

   -77.5709 -77.5581 -77.5579 -40.9492 -40.8738 -40.8738 -40.8604 -40.8464
   -40.8462 -40.8088 -40.8088 -40.7979  -4.9368  -4.8878  -4.8877  -4.8551
    -4.8551  -4.8333  -4.8333  -4.8163  -4.7592  -4.7592  -4.7175  -4.7174
    -4.7052  -4.7052  -4.6732   5.9987   8.9964  11.1424  12.1802  13.4032
    13.4033  14.2221  14.2222  14.2322  14.7260  14.7400  14.7400  15.2297
    15.2298  16.3264  16.3265  16.3368  16.3554  16.3555  16.9644  16.9669
    16.9670  17.2439  18.6152  19.0776  20.2624  20.2626  21.2309  21.2310
    22.6773  27.5862  27.5862  27.7896  29.1416  29.1753  29.1754  29.6500
    30.1682  30.1683  31.7506  31.9048  31.9048  32.0810  32.0810  32.9185
    33.5187  33.8113  34.4862  34.4862  35.2283  36.8525  37.0087  37.0087

          k = 0.0000 0.0000 0.4132 (  9966 PWs)   bands (ev):

   -77.5709 -77.5581 -77.5579 -40.9492 -40.8738 -40.8738 -40.8605 -40.8463
   -40.8462 -40.8088 -40.8088 -40.7979  -4.9345  -4.8872  -4.8872  -4.8568
    -4.8568  -4.8375  -4.8375  -4.8137  -4.7563  -4.7563  -4.7184  -4.7184
    -4.7033  -4.7033  -4.6724   6.2060   8.7084  11.0997  12.1034  13.6167
    13.6168  14.2580  14.2581  14.4190  14.7285  14.7285  14.7599  15.2400
    15.2401  16.3134  16.3135  16.3311  16.3463  16.3464  16.6880  16.6882
    16.8156  17.2439  18.4777  18.6904  20.0512  20.0513  21.0806  21.0806
    23.4636  27.9323  27.9323  28.4892  29.8444  29.8445  29.9084  29.9106
    30.8250  30.8251  31.1409  31.5632  31.5632  31.9445  31.9446  32.6468
    33.0378  33.6646  34.3251  34.3251  35.2682  36.6782  37.1574  37.1574

          k = 0.0000 0.0000 0.4648 (  9996 PWs)   bands (ev):

   -77.5709 -77.5581 -77.5579 -40.9492 -40.8739 -40.8738 -40.8606 -40.8463
   -40.8462 -40.8088 -40.8088 -40.7979  -4.9326  -4.8868  -4.8868  -4.8583
    -4.8583  -4.8411  -4.8410  -4.8114  -4.7537  -4.7537  -4.7194  -4.7193
    -4.7018  -4.7018  -4.6718   6.4328   8.4044  11.0650  12.0617  13.8441
    13.8441  14.2884  14.2885  14.5954  14.7082  14.7082  14.7878  15.2511
    15.2512  16.2513  16.2514  16.3262  16.3386  16.3387  16.4632  16.4634
    16.6691  17.2440  18.3594  18.3843  19.8760  19.8761  20.9716  20.9717
    24.2808  28.3060  28.3060  29.1419  30.0340  30.1951  30.4341  30.4342
    30.9866  31.0483  31.0483  31.5140  31.5141  32.0385  32.0385  32.5747
    32.5763  33.5504  34.1516  34.1516  35.3082  36.4462  36.8955  36.8956

          k = 0.0000 0.0000 0.5164 (  9966 PWs)   bands (ev):

   -77.5709 -77.5581 -77.5579 -40.9491 -40.8739 -40.8738 -40.8606 -40.8463
   -40.8462 -40.8088 -40.8088 -40.7979  -4.9312  -4.8864  -4.8864  -4.8594
    -4.8594  -4.8437  -4.8437  -4.8097  -4.7515  -4.7515  -4.7203  -4.7203
    -4.7007  -4.7006  -4.6713   6.6699   8.1043  11.0394  12.0424  14.0745
    14.0746  14.3114  14.3114  14.6706  14.6706  14.7451  14.8099  15.2614
    15.2615  16.0707  16.0709  16.3225  16.3328  16.3329  16.3886  16.3887
    16.5458  17.2440  18.0997  18.3254  19.7447  19.7448  20.8983  20.8984
    25.1054  28.7061  28.7061  29.2314  29.7015  30.5052  30.5454  30.5454
    30.8687  30.8687  31.6948  32.1406  32.2062  32.2063  32.2291  32.2291
    32.5697  33.4613  33.9566  33.9567  35.3505  36.0808  36.1090  36.1091

          k = 0.0000 0.0000 0.5681 (  9960 PWs)   bands (ev):

   -77.5709 -77.5581 -77.5579 -40.9491 -40.8739 -40.8738 -40.8607 -40.8463
   -40.8462 -40.8088 -40.8088 -40.7979  -4.9303  -4.8862  -4.8861  -4.8601
    -4.8601  -4.8454  -4.8454  -4.8087  -4.7501  -4.7501  -4.7209  -4.7209
    -4.7000  -4.7000  -4.6710   6.8902   7.8432  11.0237  12.0353  14.2897
    14.2898  14.3256  14.3257  14.6012  14.6012  14.8246  14.8480  15.2687
    15.2688  15.8998  15.8999  16.3201  16.3292  16.3293  16.3741  16.3742
    16.4637  17.2440  17.9310  18.2932  19.6633  19.6634  20.8562  20.8563
    25.8705  28.4328  29.1302  29.1302  30.0583  30.0583  30.0962  30.8221
    31.1001  31.1002  31.7480  32.3071  32.4975  32.4975  32.6316  32.8316
    32.8317  33.3956  33.7511  33.7512  35.4004  35.4068  35.4069  35.6098

          k = 0.0000 0.0000 0.6197 (  9948 PWs)   bands (ev):

   -77.5709 -77.5581 -77.5579 -40.9491 -40.8739 -40.8738 -40.8607 -40.8463
   -40.8462 -40.8088 -40.8088 -40.7979  -4.9300  -4.8861  -4.8861  -4.8603
    -4.8603  -4.8459  -4.8459  -4.8083  -4.7496  -4.7495  -4.7212  -4.7212
    -4.6997  -4.6997  -4.6709   7.0003   7.7190  11.0184  12.0337  14.3305
    14.3305  14.4375  14.4376  14.5094  14.5096  14.8299  14.8851  15.2713
    15.2714  15.8331  15.8332  16.3193  16.3280  16.3281  16.3712  16.3713
    16.4348  17.2440  17.8720  18.2830  19.6357  19.6358  20.8425  20.8425
    26.2766  28.0128  29.5232  29.5232  29.6442  29.6442  30.2418  31.0233
    31.1663  31.1663  31.5216  32.4614  32.6494  32.6494  32.7922  33.1395
    33.1396  33.3614  33.6388  33.6389  35.0722  35.0723  35.3596  35.4379

     Writing output data file ./out/cosn.save/

     init_run     :      0.06s CPU      0.07s WALL (       1 calls)
     electrons    :     96.10s CPU    102.58s WALL (       1 calls)

     Called by init_run:
     wfcinit      :      0.00s CPU      0.00s WALL (       1 calls)
     potinit      :      0.01s CPU      0.01s WALL (       1 calls)
     hinit0       :      0.02s CPU      0.03s WALL (       1 calls)

     Called by electrons:
     c_bands      :     96.09s CPU    102.55s WALL (       1 calls)
     v_of_rho     :      0.01s CPU      0.01s WALL (       1 calls)

     Called by c_bands:
     init_us_2    :      0.01s CPU      0.01s WALL (      98 calls)
     cegterg      :     93.08s CPU     99.07s WALL (     115 calls)

     Called by *egterg:
     cdiaghg      :     36.00s CPU     37.82s WALL (    1946 calls)
     h_psi        :     23.55s CPU     25.66s WALL (    2061 calls)
     g_psi        :      0.18s CPU      0.18s WALL (    1848 calls)

     Called by h_psi:
     h_psi:calbec :      4.46s CPU      4.89s WALL (    2061 calls)
     vloc_psi     :     14.89s CPU     16.33s WALL (    2061 calls)
     add_vuspsi   :      4.07s CPU      4.28s WALL (    2061 calls)

     General routines
     calbec       :      4.45s CPU      4.88s WALL (    2061 calls)
     fft          :      0.00s CPU      0.00s WALL (      18 calls)
     fftw         :     13.56s CPU     14.88s WALL (  208184 calls)
     davcio       :      0.03s CPU      0.05s WALL (     196 calls)

     Parallel routines
     fft_scatt_xy :      1.42s CPU      1.52s WALL (  208202 calls)
     fft_scatt_yz :      8.36s CPU      9.30s WALL (  208202 calls)

     PWSCF        :   1m38.05s CPU   1m46.23s WALL


   This run was terminated on:  16:43:30  15Jun2026            

=------------------------------------------------------------------------------=
   JOB DONE.
=------------------------------------------------------------------------------=
