
     Program PWSCF v.7.5 starts on 15Jun2026 at  3:57:31 

     This program is part of the open-source Quantum ESPRESSO suite
     for quantum simulation of materials; please cite
         "P. Giannozzi et al., J. Phys.:Condens. Matter 21 395502 (2009);
         "P. Giannozzi et al., J. Phys.:Condens. Matter 29 465901 (2017);
         "P. Giannozzi et al., J. Chem. Phys. 152 154105 (2020);
          URL http://www.quantum-espresso.org", 
     in publications or presentations arising from this work. More details at
     http://www.quantum-espresso.org/quote

     Parallel version (MPI & OpenMP), running on      16 processor cores
     Number of MPI processes:                16
     Threads/MPI process:                     1

     MPI processes distributed on     1 nodes
     33187 MiB available memory on the printing compute node when the environment starts

     Reading input from scf.in

     Current dimensions of program PWSCF are:
     Max number of different atomic species (ntypx) = 10
     Max number of k-points (npk) =  40000
     Max angular momentum in pseudopotentials (lmaxx) =  4
     file Y.pbe-spn-rrkjus_psl.1.0.0.UPF: wavefunction(s)  4S renormalized

     R & G space division:  proc/nbgrp/npool/nimage =      16
     Subspace diagonalization in iterative solution of the eigenvalue problem:
     a serial algorithm will be used


     Parallelization info
     --------------------
     sticks:   dense  smooth     PW     G-vecs:    dense   smooth      PW
     Min         128      51     15                 3674      922     155
     Max         129      52     16                 3676      924     157
     Sum        2061     817    249                58799    14771    2491

     Using Slab Decomposition



     bravais-lattice index     =            3
     lattice parameter (alat)  =       6.7560  a.u.
     unit-cell volume          =     154.1839 (a.u.)^3
     number of atoms/cell      =            7
     number of atomic types    =            2
     number of electrons       =        17.00
     number of Kohn-Sham states=           13
     kinetic-energy cutoff     =      80.0000  Ry
     charge density cutoff     =     800.0000  Ry
     scf convergence threshold =      1.0E-10
     mixing beta               =       0.3000
     number of iterations used =            8  plain     mixing
     Exchange-correlation= PBE
                           (   1   4   3   4   0   0   0)

     celldm(1)=   6.756000  celldm(2)=   0.000000  celldm(3)=   0.000000
     celldm(4)=   0.000000  celldm(5)=   0.000000  celldm(6)=   0.000000

     crystal axes: (cart. coord. in units of alat)
               a(1) = (   0.500000   0.500000   0.500000 )  
               a(2) = (  -0.500000   0.500000   0.500000 )  
               a(3) = (  -0.500000  -0.500000   0.500000 )  

     reciprocal axes: (cart. coord. in units 2 pi/alat)
               b(1) = (  1.000000  0.000000  1.000000 )  
               b(2) = ( -1.000000  1.000000  0.000000 )  
               b(3) = (  0.000000 -1.000000  1.000000 )  


     PseudoPot. # 1 for Y  read from file:
     ./pseudo/Y.pbe-spn-rrkjus_psl.1.0.0.UPF
     MD5 check sum: 5fe32e6a006803c2ec2edff47948a3c8
     Pseudo is Ultrasoft + core correction, Zval = 11.0
     Generated using &quot;atomic&quot; code by A. Dal Corso  v.6.2.2
     Using radial grid of 1223 points,  6 beta functions with: 
                l(1) =   0
                l(2) =   0
                l(3) =   1
                l(4) =   1
                l(5) =   2
                l(6) =   2
     Q(r) pseudized with 0 coefficients 


     PseudoPot. # 2 for H  read from file:
     ./pseudo/H.pbe-rrkjus_psl.1.0.0.UPF
     MD5 check sum: 3f4114867bd07edc7f1424d066fc1888
     Pseudo is Ultrasoft, Zval =  1.0
     Generated using &quot;atomic&quot; code by A. Dal Corso  v.6.3MaX
     Using radial grid of  929 points,  2 beta functions with: 
                l(1) =   0
                l(2) =   0
     Q(r) pseudized with 0 coefficients 


     atomic species   valence    mass     pseudopotential
     Y                11.00    88.90590     Y ( 1.00)
     H                 1.00     1.00800     H ( 1.00)

      6 Sym. Ops., with inversion, found



   Cartesian axes

     site n.     atom                  positions (alat units)
         1        Y      tau(   1) = (   0.0000000   0.0000000   0.0000000  )
         2        H      tau(   2) = (  -0.1250000   0.3750000   0.3750000  )
         3        H      tau(   3) = (   0.1250000   0.1250000   0.3750000  )
         4        H      tau(   4) = (  -0.3750000  -0.1250000   0.3750000  )
         5        H      tau(   5) = (   0.1250000   0.6250000   0.6250000  )
         6        H      tau(   6) = (  -0.1250000  -0.1250000   0.6250000  )
         7        H      tau(   7) = (  -0.6250000   0.1250000   0.6250000  )

     number of k points=   690  Methfessel-Paxton smearing, width (Ry)=  0.0200

     Number of k-points >= 100: set verbosity='high' to print them.

     Dense  grid:    58799 G-vectors     FFT dimensions: (  54,  54,  54)

     Smooth grid:    14771 G-vectors     FFT dimensions: (  36,  36,  36)

     Estimated max dynamical RAM per process >      34.29 MB

     Estimated total dynamical RAM >     548.63 MB

     Initial potential from superposition of free atoms

     starting charge      16.9959, renormalised to      17.0000
     Starting wfcs are   19 randomized atomic wfcs

     total cpu time spent up to now is        2.9 secs

     per-process dynamical memory:    37.8 Mb

     Self-consistent Calculation

     iteration #  1     ecut=    80.00 Ry     beta= 0.30
     Davidson diagonalization with overlap
     ethr =  1.00E-02,  avg # of iterations =  2.9

     Threshold (ethr) on eigenvalues was too large:
     Diagonalizing with lowered threshold

     Davidson diagonalization with overlap
     ethr =  8.25E-04,  avg # of iterations =  1.0

     total cpu time spent up to now is       12.3 secs

     total energy              =     -89.22932812 Ry
     estimated scf accuracy    <       0.14185513 Ry

     iteration #  2     ecut=    80.00 Ry     beta= 0.30
     Davidson diagonalization with overlap
     ethr =  8.34E-04,  avg # of iterations =  1.0

     total cpu time spent up to now is       16.3 secs

     total energy              =     -89.21635263 Ry
     estimated scf accuracy    <       0.04886507 Ry

     iteration #  3     ecut=    80.00 Ry     beta= 0.30
     Davidson diagonalization with overlap
     ethr =  2.87E-04,  avg # of iterations =  1.8

     total cpu time spent up to now is       20.6 secs

     total energy              =     -89.22023940 Ry
     estimated scf accuracy    <       0.00298191 Ry

     iteration #  4     ecut=    80.00 Ry     beta= 0.30
     Davidson diagonalization with overlap
     ethr =  1.75E-05,  avg # of iterations =  2.6

     total cpu time spent up to now is       25.9 secs

     total energy              =     -89.22068131 Ry
     estimated scf accuracy    <       0.00036445 Ry

     iteration #  5     ecut=    80.00 Ry     beta= 0.30
     Davidson diagonalization with overlap
     ethr =  2.14E-06,  avg # of iterations =  2.1

     total cpu time spent up to now is       30.3 secs

     total energy              =     -89.22066085 Ry
     estimated scf accuracy    <       0.00006328 Ry

     iteration #  6     ecut=    80.00 Ry     beta= 0.30
     Davidson diagonalization with overlap
     ethr =  3.72E-07,  avg # of iterations =  2.0

     total cpu time spent up to now is       35.7 secs

     total energy              =     -89.22068323 Ry
     estimated scf accuracy    <       0.00001367 Ry

     iteration #  7     ecut=    80.00 Ry     beta= 0.30
     Davidson diagonalization with overlap
     ethr =  8.04E-08,  avg # of iterations =  1.9

     total cpu time spent up to now is       40.3 secs

     total energy              =     -89.22068519 Ry
     estimated scf accuracy    <       0.00000036 Ry

     iteration #  8     ecut=    80.00 Ry     beta= 0.30
     Davidson diagonalization with overlap
     ethr =  2.10E-09,  avg # of iterations =  2.0

     total cpu time spent up to now is       45.2 secs

     total energy              =     -89.22068527 Ry
     estimated scf accuracy    <       0.00000002 Ry

     iteration #  9     ecut=    80.00 Ry     beta= 0.30
     Davidson diagonalization with overlap
     ethr =  9.79E-11,  avg # of iterations =  2.0

     total cpu time spent up to now is       49.9 secs

     total energy              =     -89.22068527 Ry
     estimated scf accuracy    <          1.4E-09 Ry

     iteration # 10     ecut=    80.00 Ry     beta= 0.30
     Davidson diagonalization with overlap
     ethr =  8.13E-12,  avg # of iterations =  1.9

     total cpu time spent up to now is       54.3 secs

     total energy              =     -89.22068527 Ry
     estimated scf accuracy    <          7.1E-10 Ry

     iteration # 11     ecut=    80.00 Ry     beta= 0.30
     Davidson diagonalization with overlap
     ethr =  4.17E-12,  avg # of iterations =  2.0

     total cpu time spent up to now is       58.8 secs

     End of self-consistent calculation

     Number of k-points >= 100: set verbosity='high' to print the bands.

     the Fermi energy is    18.6470 ev

!    total energy              =     -89.22068528 Ry
     estimated scf accuracy    <          4.2E-11 Ry
     smearing contrib. (-TS)   =      -0.00002999 Ry
     internal energy E=F+TS    =     -89.22065528 Ry

     The total energy is F=E-TS. E is the sum of the following terms:
     one-electron contribution =       6.60083688 Ry
     hartree contribution      =       8.73266270 Ry
     xc contribution           =     -23.70676993 Ry
     ewald contribution        =     -80.84738494 Ry

     convergence has been achieved in  11 iterations

     Forces acting on atoms (cartesian axes, Ry/au):

     atom    1 type  1   force =     0.00000000    0.00000000    0.00000000
     atom    2 type  2   force =     0.25625452   -0.06791231   -0.07528993
     atom    3 type  2   force =     0.06791231    0.07528993    0.25625452
     atom    4 type  2   force =     0.07528993    0.25625452   -0.06791231
     atom    5 type  2   force =    -0.25625452    0.06791231    0.07528993
     atom    6 type  2   force =    -0.06791231   -0.07528993   -0.25625452
     atom    7 type  2   force =    -0.07528993   -0.25625452    0.06791231

     Total force =     0.675042     Total SCF correction =     0.000002


     Computing stress (Cartesian axis) and pressure

          total   stress  (Ry/bohr**3)                   (kbar)     P=     2406.64
   0.01636002   0.00125845  -0.00125845         2406.64      185.12     -185.12
   0.00125845   0.01636002   0.00125845          185.12     2406.64      185.12
  -0.00125845   0.00125845   0.01636002         -185.12      185.12     2406.64


     Writing all to output data dir ./out/yh6.save/ :
     XML data file, charge density, pseudopotentials, collected wavefunctions

     init_run     :      2.60s CPU      2.72s WALL (       1 calls)
     electrons    :     53.49s CPU     55.90s WALL (       1 calls)
     forces       :      0.25s CPU      0.26s WALL (       1 calls)
     stress       :      1.13s CPU      1.15s WALL (       1 calls)

     Called by init_run:
     wfcinit      :      2.17s CPU      2.27s WALL (       1 calls)
     potinit      :      0.18s CPU      0.18s WALL (       1 calls)
     hinit0       :      0.21s CPU      0.21s WALL (       1 calls)

     Called by electrons:
     c_bands      :     44.63s CPU     46.64s WALL (      12 calls)
     sum_band     :      8.60s CPU      8.99s WALL (      12 calls)
     v_of_rho     :      0.08s CPU      0.09s WALL (      12 calls)
     newd         :      0.19s CPU      0.20s WALL (      12 calls)
     mix_rho      :      0.01s CPU      0.01s WALL (      12 calls)

     Called by c_bands:
     init_us_2    :      1.07s CPU      1.12s WALL (   18630 calls)
     cegterg      :     43.17s CPU     45.11s WALL (    8280 calls)

     Called by *egterg:
     cdiaghg      :      5.17s CPU      5.40s WALL (   23634 calls)
     h_psi        :     35.72s CPU     37.34s WALL (   25014 calls)
     s_psi        :      0.55s CPU      0.58s WALL (   25014 calls)
     g_psi        :      0.25s CPU      0.26s WALL (   16044 calls)

     Called by h_psi:
     h_psi:calbec :      1.14s CPU      1.19s WALL (   25014 calls)
     vloc_psi     :     33.75s CPU     35.27s WALL (   25014 calls)
                                        0.00s GPU  (   25014 calls)
     add_vuspsi   :      0.57s CPU      0.61s WALL (   25014 calls)

     General routines
     calbec       :      2.00s CPU      2.10s WALL (   45024 calls)
     fft          :      0.18s CPU      0.19s WALL (     180 calls)
     ffts         :      0.17s CPU      0.17s WALL (      24 calls)
     fftw         :     36.67s CPU     38.33s WALL (  632334 calls)
     interpolate  :      0.17s CPU      0.17s WALL (      12 calls)

     Parallel routines

     PWSCF        :     58.98s CPU   1m 1.81s WALL


   This run was terminated on:   3:58:33  15Jun2026            

=------------------------------------------------------------------------------=
   JOB DONE.
=------------------------------------------------------------------------------=
