
     Program PWSCF v.7.5 starts on 15Jun2026 at  3:15:20 

     This program is part of the open-source Quantum ESPRESSO suite
     for quantum simulation of materials; please cite
         "P. Giannozzi et al., J. Phys.:Condens. Matter 21 395502 (2009);
         "P. Giannozzi et al., J. Phys.:Condens. Matter 29 465901 (2017);
         "P. Giannozzi et al., J. Chem. Phys. 152 154105 (2020);
          URL http://www.quantum-espresso.org", 
     in publications or presentations arising from this work. More details at
     http://www.quantum-espresso.org/quote

     Parallel version (MPI & OpenMP), running on      10 processor cores
     Number of MPI processes:                10
     Threads/MPI process:                     1

     MPI processes distributed on     1 nodes
     33169 MiB available memory on the printing compute node when the environment starts

     Reading input from vc-relax.in

     Current dimensions of program PWSCF are:
     Max number of different atomic species (ntypx) = 10
     Max number of k-points (npk) =  40000
     Max angular momentum in pseudopotentials (lmaxx) =  4

     R & G space division:  proc/nbgrp/npool/nimage =      10
     Subspace diagonalization in iterative solution of the eigenvalue problem:
     a serial algorithm will be used


     Parallelization info
     --------------------
     sticks:   dense  smooth     PW     G-vecs:    dense   smooth      PW
     Min         178      88     26                 4978     1756     288
     Max         179      89     27                 4981     1758     290
     Sum        1789     889    265                49805    17573    2891

     Using Slab Decomposition



     bravais-lattice index     =            2
     lattice parameter (alat)  =       9.0000  a.u.
     unit-cell volume          =     182.2500 (a.u.)^3
     number of atoms/cell      =           11
     number of atomic types    =            2
     number of electrons       =        20.00
     number of Kohn-Sham states=           14
     kinetic-energy cutoff     =      80.0000  Ry
     charge density cutoff     =     640.0000  Ry
     scf convergence threshold =      1.0E-09
     mixing beta               =       0.3000
     number of iterations used =            8  plain     mixing
     energy convergence thresh.=      1.0E-06
     force convergence thresh. =      1.0E-04
     press convergence thresh. =      5.0E-01
     Exchange-correlation= PBE
                           (   1   4   3   4   0   0   0)
     nstep                     =          200


     celldm(1)=   9.000000  celldm(2)=   0.000000  celldm(3)=   0.000000
     celldm(4)=   0.000000  celldm(5)=   0.000000  celldm(6)=   0.000000

     crystal axes: (cart. coord. in units of alat)
               a(1) = (  -0.500000   0.000000   0.500000 )  
               a(2) = (   0.000000   0.500000   0.500000 )  
               a(3) = (  -0.500000   0.500000   0.000000 )  

     reciprocal axes: (cart. coord. in units 2 pi/alat)
               b(1) = ( -1.000000 -1.000000  1.000000 )  
               b(2) = (  1.000000  1.000000  1.000000 )  
               b(3) = ( -1.000000  1.000000 -1.000000 )  


     PseudoPot. # 1 for Sr read from file:
     ./pseudo/Sr.pbe-spn-rrkjus_psl.1.0.0.UPF
     MD5 check sum: 062293b6b65f9744728f4999ca8ab72f
     Pseudo is Ultrasoft + core correction, Zval = 10.0
     Generated using &quot;atomic&quot; code by A. Dal Corso  v.6.2.2
     Using radial grid of 1221 points,  6 beta functions with: 
                l(1) =   0
                l(2) =   0
                l(3) =   1
                l(4) =   1
                l(5) =   2
                l(6) =   2
     Q(r) pseudized with 0 coefficients 


     PseudoPot. # 2 for H  read from file:
     ./pseudo/H.pbe-rrkjus_psl.1.0.0.UPF
     MD5 check sum: 3f4114867bd07edc7f1424d066fc1888
     Pseudo is Ultrasoft, Zval =  1.0
     Generated using &quot;atomic&quot; code by A. Dal Corso  v.6.3MaX
     Using radial grid of  929 points,  2 beta functions with: 
                l(1) =   0
                l(2) =   0
     Q(r) pseudized with 0 coefficients 


     atomic species   valence    mass     pseudopotential
     Sr               10.00    87.62000     Sr( 1.00)
     H                 1.00     1.00800     H ( 1.00)

     12 Sym. Ops., with inversion, found



   Cartesian axes

     site n.     atom                  positions (alat units)
         1        Sr     tau(   1) = (   0.0000000   0.0000000   0.0000000  )
         2        H      tau(   2) = (  -0.2500000   0.2500000   0.2500000  )
         3        H      tau(   3) = (  -0.7500000   0.7500000   0.7500000  )
         4        H      tau(   4) = (  -0.3750000   0.3750000   0.3750000  )
         5        H      tau(   5) = (  -0.6250000   0.6250000   0.6250000  )
         6        H      tau(   6) = (  -0.5000000   0.5000000   0.3750000  )
         7        H      tau(   7) = (  -0.5000000   0.5000000   0.6250000  )
         8        H      tau(   8) = (  -0.3750000   0.5000000   0.5000000  )
         9        H      tau(   9) = (  -0.6250000   0.5000000   0.5000000  )
        10        H      tau(  10) = (  -0.5000000   0.3750000   0.5000000  )
        11        H      tau(  11) = (  -0.5000000   0.6250000   0.5000000  )

     number of k points=   189  Methfessel-Paxton smearing, width (Ry)=  0.0200

     Number of k-points >= 100: set verbosity='high' to print them.

     Dense  grid:    49805 G-vectors     FFT dimensions: (  54,  54,  54)

     Smooth grid:    17573 G-vectors     FFT dimensions: (  40,  40,  40)

     Estimated max dynamical RAM per process >      36.92 MB

     Estimated total dynamical RAM >     369.17 MB

     Initial potential from superposition of free atoms

     starting charge      19.9923, renormalised to      20.0000
     Starting wfcs are   18 randomized atomic wfcs

     total cpu time spent up to now is        2.7 secs

     per-process dynamical memory:    34.2 Mb

     Self-consistent Calculation

     iteration #  1     ecut=    80.00 Ry     beta= 0.30
     Davidson diagonalization with overlap
     ethr =  1.00E-02,  avg # of iterations =  6.5

     total cpu time spent up to now is        8.3 secs

     total energy              =     -79.50312474 Ry
     estimated scf accuracy    <       1.00580060 Ry

     iteration #  2     ecut=    80.00 Ry     beta= 0.30
     Davidson diagonalization with overlap
     ethr =  5.03E-03,  avg # of iterations =  1.7

     total cpu time spent up to now is       11.4 secs

     total energy              =     -79.45626319 Ry
     estimated scf accuracy    <       0.20990802 Ry

     iteration #  3     ecut=    80.00 Ry     beta= 0.30
     Davidson diagonalization with overlap
     ethr =  1.05E-03,  avg # of iterations =  2.6

     total cpu time spent up to now is       15.1 secs

     total energy              =     -79.49891888 Ry
     estimated scf accuracy    <       0.00983358 Ry

     iteration #  4     ecut=    80.00 Ry     beta= 0.30
     Davidson diagonalization with overlap
     ethr =  4.92E-05,  avg # of iterations =  3.8

     total cpu time spent up to now is       19.3 secs

     total energy              =     -79.49994351 Ry
     estimated scf accuracy    <       0.00320646 Ry

     iteration #  5     ecut=    80.00 Ry     beta= 0.30
     Davidson diagonalization with overlap
     ethr =  1.60E-05,  avg # of iterations =  2.5

     total cpu time spent up to now is       22.8 secs

     total energy              =     -79.50044413 Ry
     estimated scf accuracy    <       0.00006006 Ry

     iteration #  6     ecut=    80.00 Ry     beta= 0.30
     Davidson diagonalization with overlap
     ethr =  3.00E-07,  avg # of iterations =  3.7

     total cpu time spent up to now is       26.9 secs

     total energy              =     -79.50045656 Ry
     estimated scf accuracy    <       0.00001604 Ry

     iteration #  7     ecut=    80.00 Ry     beta= 0.30
     Davidson diagonalization with overlap
     ethr =  8.02E-08,  avg # of iterations =  2.0

     total cpu time spent up to now is       30.4 secs

     total energy              =     -79.50046048 Ry
     estimated scf accuracy    <       0.00000161 Ry

     iteration #  8     ecut=    80.00 Ry     beta= 0.30
     Davidson diagonalization with overlap
     ethr =  8.03E-09,  avg # of iterations =  2.0

     total cpu time spent up to now is       33.8 secs

     total energy              =     -79.50046071 Ry
     estimated scf accuracy    <       0.00000005 Ry

     iteration #  9     ecut=    80.00 Ry     beta= 0.30
     Davidson diagonalization with overlap
     ethr =  2.63E-10,  avg # of iterations =  2.1

     total cpu time spent up to now is       37.2 secs

     total energy              =     -79.50046072 Ry
     estimated scf accuracy    <          6.3E-09 Ry

     iteration # 10     ecut=    80.00 Ry     beta= 0.30
     Davidson diagonalization with overlap
     ethr =  3.16E-11,  avg # of iterations =  2.3

     total cpu time spent up to now is       40.9 secs

     total energy              =     -79.50046072 Ry
     estimated scf accuracy    <          2.2E-09 Ry

     iteration # 11     ecut=    80.00 Ry     beta= 0.30
     Davidson diagonalization with overlap
     ethr =  1.08E-11,  avg # of iterations =  2.0

     total cpu time spent up to now is       44.1 secs

     End of self-consistent calculation

     Number of k-points >= 100: set verbosity='high' to print the bands.

     the Fermi energy is    17.7035 ev

!    total energy              =     -79.50046072 Ry
     estimated scf accuracy    <          2.0E-10 Ry
     smearing contrib. (-TS)   =      -0.00004659 Ry
     internal energy E=F+TS    =     -79.50041413 Ry

     The total energy is F=E-TS. E is the sum of the following terms:
     one-electron contribution =      15.66549951 Ry
     hartree contribution      =       6.45765066 Ry
     xc contribution           =     -28.01334143 Ry
     ewald contribution        =     -73.61022287 Ry

     convergence has been achieved in  11 iterations

     Forces acting on atoms (cartesian axes, Ry/au):

     atom    1 type  1   force =    -0.00000000   -0.00000000    0.00000000
     atom    2 type  2   force =    -0.00034678    0.00034678    0.00034678
     atom    3 type  2   force =     0.00034678   -0.00034678   -0.00034678
     atom    4 type  2   force =     0.19494335   -0.19494335   -0.19494335
     atom    5 type  2   force =    -0.19494335    0.19494335    0.19494335
     atom    6 type  2   force =    -0.15340229    0.15340229   -0.40164119
     atom    7 type  2   force =     0.15340229   -0.15340229    0.40164119
     atom    8 type  2   force =     0.40164119    0.15340229    0.15340229
     atom    9 type  2   force =    -0.40164119   -0.15340229   -0.15340229
     atom   10 type  2   force =    -0.15340229   -0.40164119    0.15340229
     atom   11 type  2   force =     0.15340229    0.40164119   -0.15340229

     Total force =     1.215853     Total SCF correction =     0.000009


     Computing stress (Cartesian axis) and pressure

          total   stress  (Ry/bohr**3)                   (kbar)     P=     3267.32
   0.02221080  -0.00029734  -0.00029734         3267.32      -43.74      -43.74
  -0.00029734   0.02221080   0.00029734          -43.74     3267.32       43.74
  -0.00029734   0.00029734   0.02221080          -43.74       43.74     3267.32


     BFGS Geometry Optimization
     Energy error            =      1.5E+00 Ry
     Gradient error          =      4.0E-01 Ry/Bohr
     Cell gradient error     =      2.7E+02 kbar

     number of scf cycles    =   1
     number of bfgs steps    =   0

     enthalpy           new  =     -75.7837297551 Ry

     new trust radius        =       0.4564867719 bohr
     new conv_thr            =       0.0000000010 Ry

     new unit-cell volume =    208.20310 a.u.^3 (    30.85252 Ang^3 )
     density =      5.25839 g/cm^3

CELL_PARAMETERS (alat=  9.00000000)
  -0.526431911   0.007433545   0.526431911
  -0.007433545   0.526431911   0.526431911
  -0.526431911   0.526431911   0.007433545

ATOMIC_POSITIONS (crystal)
Sr               0.0000000000       -0.0000000000       -0.0000000000
H                0.2500385314        0.2500385314        0.2500385314
H                0.7499614686        0.7499614686        0.7499614686
H                0.3533396272        0.3533396272        0.3533396272
H                0.6466603728        0.6466603728        0.6466603728
H                0.3303732009        0.3303732009        0.7037161971
H                0.6696267991        0.6696267991        0.2962838029
H                0.3303732009        0.7037161971        0.3303732009
H                0.6696267991        0.2962838029        0.6696267991
H                0.7037161971        0.3303732009        0.3303732009
H                0.2962838029        0.6696267991        0.6696267991



     Writing config-only to output data dir ./out/srh10.save/ :
     XML data file
     NEW-OLD atomic charge density approx. for the potential
     New effective cutoffs (rho, wfc):  593.09   74.25

     total cpu time spent up to now is       45.9 secs

     per-process dynamical memory:    49.9 Mb

     Self-consistent Calculation

     iteration #  1     ecut=    80.00 Ry     beta= 0.30
     Davidson diagonalization with overlap
     c_bands:  1 eigenvalues not converged
     c_bands:  1 eigenvalues not converged
     c_bands:  1 eigenvalues not converged
     ethr =  1.00E-06,  avg # of iterations = 12.5

     total cpu time spent up to now is       56.7 secs

     total energy              =     -80.38475714 Ry
     estimated scf accuracy    <       0.27302495 Ry

     iteration #  2     ecut=    80.00 Ry     beta= 0.30
     Davidson diagonalization with overlap
     ethr =  1.37E-03,  avg # of iterations =  1.0

     total cpu time spent up to now is       59.6 secs

     total energy              =     -80.36676405 Ry
     estimated scf accuracy    <       0.07076103 Ry

     iteration #  3     ecut=    80.00 Ry     beta= 0.30
     Davidson diagonalization with overlap
     ethr =  3.54E-04,  avg # of iterations =  2.2

     total cpu time spent up to now is       62.9 secs

     total energy              =     -80.37455346 Ry
     estimated scf accuracy    <       0.00683911 Ry

     iteration #  4     ecut=    80.00 Ry     beta= 0.30
     Davidson diagonalization with overlap
     ethr =  3.42E-05,  avg # of iterations =  2.8

     total cpu time spent up to now is       66.4 secs

     total energy              =     -80.37530249 Ry
     estimated scf accuracy    <       0.00041750 Ry

     iteration #  5     ecut=    80.00 Ry     beta= 0.30
     Davidson diagonalization with overlap
     ethr =  2.09E-06,  avg # of iterations =  3.3

     total cpu time spent up to now is       69.8 secs

     total energy              =     -80.37519265 Ry
     estimated scf accuracy    <       0.00020428 Ry

     iteration #  6     ecut=    80.00 Ry     beta= 0.30
     Davidson diagonalization with overlap
     ethr =  1.02E-06,  avg # of iterations =  2.1

     total cpu time spent up to now is       73.5 secs

     total energy              =     -80.37523640 Ry
     estimated scf accuracy    <       0.00001124 Ry

     iteration #  7     ecut=    80.00 Ry     beta= 0.30
     Davidson diagonalization with overlap
     ethr =  5.62E-08,  avg # of iterations =  2.1

     total cpu time spent up to now is       77.0 secs

     total energy              =     -80.37523865 Ry
     estimated scf accuracy    <       0.00000147 Ry

     iteration #  8     ecut=    80.00 Ry     beta= 0.30
     Davidson diagonalization with overlap
     ethr =  7.36E-09,  avg # of iterations =  2.0

     total cpu time spent up to now is       80.1 secs

     total energy              =     -80.37523866 Ry
     estimated scf accuracy    <       0.00000015 Ry

     iteration #  9     ecut=    80.00 Ry     beta= 0.30
     Davidson diagonalization with overlap
     ethr =  7.73E-10,  avg # of iterations =  2.2

     total cpu time spent up to now is       84.0 secs

     total energy              =     -80.37523870 Ry
     estimated scf accuracy    <       0.00000011 Ry

     iteration # 10     ecut=    80.00 Ry     beta= 0.30
     Davidson diagonalization with overlap
     ethr =  5.50E-10,  avg # of iterations =  2.0

     total cpu time spent up to now is       87.6 secs

     total energy              =     -80.37523873 Ry
     estimated scf accuracy    <          2.4E-09 Ry

     iteration # 11     ecut=    80.00 Ry     beta= 0.30
     Davidson diagonalization with overlap
     ethr =  1.20E-11,  avg # of iterations =  2.1

     total cpu time spent up to now is       91.0 secs

     End of self-consistent calculation

     Number of k-points >= 100: set verbosity='high' to print the bands.

     the Fermi energy is    15.6381 ev

!    total energy              =     -80.37523873 Ry
     estimated scf accuracy    <          5.3E-11 Ry
     smearing contrib. (-TS)   =       0.00015011 Ry
     internal energy E=F+TS    =     -80.37538884 Ry

     The total energy is F=E-TS. E is the sum of the following terms:
     one-electron contribution =      13.43233534 Ry
     hartree contribution      =       6.24147053 Ry
     xc contribution           =     -27.18216004 Ry
     ewald contribution        =     -72.86703468 Ry

     convergence has been achieved in  11 iterations

     Forces acting on atoms (cartesian axes, Ry/au):

     atom    1 type  1   force =     0.00000000   -0.00000000    0.00000000
     atom    2 type  2   force =     0.00270049   -0.00270049   -0.00270049
     atom    3 type  2   force =    -0.00270049    0.00270049    0.00270049
     atom    4 type  2   force =     0.02524041   -0.02524041   -0.02524041
     atom    5 type  2   force =    -0.02524041    0.02524041    0.02524041
     atom    6 type  2   force =    -0.04504071    0.04504071    0.11490069
     atom    7 type  2   force =     0.04504071   -0.04504071   -0.11490069
     atom    8 type  2   force =    -0.11490069    0.04504071    0.04504071
     atom    9 type  2   force =     0.11490069   -0.04504071   -0.04504071
     atom   10 type  2   force =    -0.04504071    0.11490069    0.04504071
     atom   11 type  2   force =     0.04504071   -0.11490069   -0.04504071

     Total force =     0.327755     Total SCF correction =     0.000002


     Computing stress (Cartesian axis) and pressure

          total   stress  (Ry/bohr**3)                   (kbar)     P=     1856.75
   0.01262190  -0.00068272  -0.00068272         1856.75     -100.43     -100.43
  -0.00068272   0.01262190   0.00068272         -100.43     1856.75      100.43
  -0.00068272   0.00068272   0.01262190         -100.43      100.43     1856.75

     Energy error            =      3.5E-01 Ry
     Gradient error          =      1.1E-01 Ry/Bohr
     Cell gradient error     =      1.1E+03 kbar

     number of scf cycles    =   2
     number of bfgs steps    =   1

     enthalpy           old  =     -75.7837297551 Ry
     enthalpy           new  =     -76.1292310032 Ry

     CASE: enthalpy          _new < enthalpy          _old

     new trust radius        =       0.4244527115 bohr
     new conv_thr            =       0.0000000010 Ry

     new unit-cell volume =    130.15888 a.u.^3 (    19.28756 Ang^3 )
     density =      8.41136 g/cm^3

CELL_PARAMETERS (alat=  9.00000000)
  -0.460691627   0.026740757   0.460691627
  -0.026740757   0.460691627   0.460691627
  -0.460691627   0.460691627   0.026740757

ATOMIC_POSITIONS (crystal)
Sr               0.0000000000        0.0000000000       -0.0000000000
H                0.2498000383        0.2498000383        0.2498000383
H                0.7501999617        0.7501999617        0.7501999617
H                0.3415072889        0.3415072889        0.3415072889
H                0.6584927111        0.6584927111        0.6584927111
H                0.3216810465        0.3216810465        0.7358835303
H                0.6783189535        0.6783189535        0.2641164697
H                0.3216810465        0.7358835303        0.3216810465
H                0.6783189535        0.2641164697        0.6783189535
H                0.7358835303        0.3216810465        0.3216810465
H                0.2641164697        0.6783189535        0.6783189535



     Writing config-only to output data dir ./out/srh10.save/ :
     XML data file
     NEW-OLD atomic charge density approx. for the potential
     New effective cutoffs (rho, wfc):  846.68  106.20

     total cpu time spent up to now is       92.9 secs

     per-process dynamical memory:    50.4 Mb

     Self-consistent Calculation

     iteration #  1     ecut=    80.00 Ry     beta= 0.30
     Davidson diagonalization with overlap
     ethr =  1.00E-06,  avg # of iterations = 10.8

     total cpu time spent up to now is      102.5 secs

     total energy              =     -78.48884520 Ry
     estimated scf accuracy    <       0.02294452 Ry

     iteration #  2     ecut=    80.00 Ry     beta= 0.30
     Davidson diagonalization with overlap
     ethr =  1.15E-04,  avg # of iterations =  1.0

     total cpu time spent up to now is      105.4 secs

     total energy              =     -78.48677365 Ry
     estimated scf accuracy    <       0.00795585 Ry

     iteration #  3     ecut=    80.00 Ry     beta= 0.30
     Davidson diagonalization with overlap
     ethr =  3.98E-05,  avg # of iterations =  2.0

     total cpu time spent up to now is      108.7 secs

     total energy              =     -78.48756768 Ry
     estimated scf accuracy    <       0.00053532 Ry

     iteration #  4     ecut=    80.00 Ry     beta= 0.30
     Davidson diagonalization with overlap
     ethr =  2.68E-06,  avg # of iterations =  2.2

     total cpu time spent up to now is      112.0 secs

     total energy              =     -78.48762307 Ry
     estimated scf accuracy    <       0.00001811 Ry

     iteration #  5     ecut=    80.00 Ry     beta= 0.30
     Davidson diagonalization with overlap
     ethr =  9.06E-08,  avg # of iterations =  1.7

     total cpu time spent up to now is      115.1 secs

     total energy              =     -78.48762162 Ry
     estimated scf accuracy    <       0.00000639 Ry

     iteration #  6     ecut=    80.00 Ry     beta= 0.30
     Davidson diagonalization with overlap
     ethr =  3.19E-08,  avg # of iterations =  2.0

     total cpu time spent up to now is      118.6 secs

     total energy              =     -78.48762347 Ry
     estimated scf accuracy    <       0.00000106 Ry

     iteration #  7     ecut=    80.00 Ry     beta= 0.30
     Davidson diagonalization with overlap
     ethr =  5.30E-09,  avg # of iterations =  1.1

     total cpu time spent up to now is      121.6 secs

     total energy              =     -78.48762322 Ry
     estimated scf accuracy    <       0.00000044 Ry

     iteration #  8     ecut=    80.00 Ry     beta= 0.30
     Davidson diagonalization with overlap
     ethr =  2.22E-09,  avg # of iterations =  2.0

     total cpu time spent up to now is      125.3 secs

     total energy              =     -78.48762335 Ry
     estimated scf accuracy    <       0.00000018 Ry

     iteration #  9     ecut=    80.00 Ry     beta= 0.30
     Davidson diagonalization with overlap
     ethr =  9.04E-10,  avg # of iterations =  2.0

     total cpu time spent up to now is      128.9 secs

     total energy              =     -78.48762339 Ry
     estimated scf accuracy    <          1.8E-09 Ry

     iteration # 10     ecut=    80.00 Ry     beta= 0.30
     Davidson diagonalization with overlap
     ethr =  9.17E-12,  avg # of iterations =  2.1

     total cpu time spent up to now is      132.3 secs

     End of self-consistent calculation

     Number of k-points >= 100: set verbosity='high' to print the bands.

     the Fermi energy is    25.9336 ev

!    total energy              =     -78.48762340 Ry
     estimated scf accuracy    <          9.6E-11 Ry
     smearing contrib. (-TS)   =       0.00012690 Ry
     internal energy E=F+TS    =     -78.48775030 Ry

     The total energy is F=E-TS. E is the sum of the following terms:
     one-electron contribution =      32.10931661 Ry
     hartree contribution      =       3.65063688 Ry
     xc contribution           =     -28.97591688 Ry
     ewald contribution        =     -85.27178690 Ry

     convergence has been achieved in  10 iterations

     Forces acting on atoms (cartesian axes, Ry/au):

     atom    1 type  1   force =    -0.00000000   -0.00000000    0.00000000
     atom    2 type  2   force =     0.07912707   -0.07912707   -0.07912707
     atom    3 type  2   force =    -0.07912707    0.07912707    0.07912707
     atom    4 type  2   force =    -0.04405129    0.04405129    0.04405129
     atom    5 type  2   force =     0.04405129   -0.04405129   -0.04405129
     atom    6 type  2   force =    -0.05828371    0.05828371    0.16597082
     atom    7 type  2   force =     0.05828371   -0.05828371   -0.16597082
     atom    8 type  2   force =    -0.16597082    0.05828371    0.05828371
     atom    9 type  2   force =     0.16597082   -0.05828371   -0.05828371
     atom   10 type  2   force =    -0.05828371    0.16597082    0.05828371
     atom   11 type  2   force =     0.05828371   -0.16597082   -0.05828371

     Total force =     0.505224     Total SCF correction =     0.000005


     Computing stress (Cartesian axis) and pressure

          total   stress  (Ry/bohr**3)                   (kbar)     P=     6621.71
   0.04501347  -0.00223839  -0.00223839         6621.71     -329.28     -329.28
  -0.00223839   0.04501347   0.00223839         -329.28     6621.71      329.28
  -0.00223839   0.00223839   0.04501347         -329.28      329.28     6621.71

     Energy error            =      3.0E-01 Ry
     Gradient error          =      1.7E-01 Ry/Bohr
     Cell gradient error     =      3.6E+03 kbar

     number of scf cycles    =   3
     number of bfgs steps    =   2

     enthalpy           old  =     -76.1292310032 Ry
     enthalpy           new  =     -75.8332171561 Ry

     CASE: enthalpy          _new > enthalpy          _old

     new trust radius        =       0.1417639119 bohr
     new conv_thr            =       0.0000000010 Ry

     new unit-cell volume =    177.57786 a.u.^3 (    26.31432 Ang^3 )
     density =      6.16526 g/cm^3

CELL_PARAMETERS (alat=  9.00000000)
  -0.502956817   0.014327927   0.502956817
  -0.014327927   0.502956817   0.502956817
  -0.502956817   0.502956817   0.014327927

ATOMIC_POSITIONS (crystal)
Sr               0.0000000000        0.0000000000       -0.0000000000
H                0.2499533683        0.2499533683        0.2499533683
H                0.7500466317        0.7500466317        0.7500466317
H                0.3491144363        0.3491144363        0.3491144363
H                0.6508855637        0.6508855637        0.6508855637
H                0.3272693333        0.3272693333        0.7152027791
H                0.6727306667        0.6727306667        0.2847972209
H                0.3272693333        0.7152027791        0.3272693333
H                0.6727306667        0.2847972209        0.6727306667
H                0.7152027791        0.3272693333        0.3272693333
H                0.2847972209        0.6727306667        0.6727306667



     Writing config-only to output data dir ./out/srh10.save/ :
     XML data file
     NEW-OLD atomic charge density approx. for the potential
     New effective cutoffs (rho, wfc):  668.66   83.77

     total cpu time spent up to now is      134.2 secs

     per-process dynamical memory:    50.4 Mb

     Self-consistent Calculation

     iteration #  1     ecut=    80.00 Ry     beta= 0.30
     Davidson diagonalization with overlap
     c_bands:  1 eigenvalues not converged
     ethr =  1.00E-06,  avg # of iterations = 10.8

     total cpu time spent up to now is      143.9 secs

     total energy              =     -79.90200895 Ry
     estimated scf accuracy    <       0.01005566 Ry

     iteration #  2     ecut=    80.00 Ry     beta= 0.30
     Davidson diagonalization with overlap
     ethr =  5.03E-05,  avg # of iterations =  1.0

     total cpu time spent up to now is      146.8 secs

     total energy              =     -79.90116878 Ry
     estimated scf accuracy    <       0.00325105 Ry

     iteration #  3     ecut=    80.00 Ry     beta= 0.30
     Davidson diagonalization with overlap
     ethr =  1.63E-05,  avg # of iterations =  2.0

     total cpu time spent up to now is      150.2 secs

     total energy              =     -79.90156955 Ry
     estimated scf accuracy    <       0.00024712 Ry

     iteration #  4     ecut=    80.00 Ry     beta= 0.30
     Davidson diagonalization with overlap
     ethr =  1.24E-06,  avg # of iterations =  2.2

     total cpu time spent up to now is      153.4 secs

     total energy              =     -79.90159526 Ry
     estimated scf accuracy    <       0.00001606 Ry

     iteration #  5     ecut=    80.00 Ry     beta= 0.30
     Davidson diagonalization with overlap
     ethr =  8.03E-08,  avg # of iterations =  1.2

     total cpu time spent up to now is      156.3 secs

     total energy              =     -79.90159305 Ry
     estimated scf accuracy    <       0.00000538 Ry

     iteration #  6     ecut=    80.00 Ry     beta= 0.30
     Davidson diagonalization with overlap
     ethr =  2.69E-08,  avg # of iterations =  2.1

     total cpu time spent up to now is      160.0 secs

     total energy              =     -79.90159478 Ry
     estimated scf accuracy    <       0.00000086 Ry

     iteration #  7     ecut=    80.00 Ry     beta= 0.30
     Davidson diagonalization with overlap
     ethr =  4.29E-09,  avg # of iterations =  1.1

     total cpu time spent up to now is      162.9 secs

     total energy              =     -79.90159481 Ry
     estimated scf accuracy    <       0.00000014 Ry

     iteration #  8     ecut=    80.00 Ry     beta= 0.30
     Davidson diagonalization with overlap
     ethr =  6.79E-10,  avg # of iterations =  2.1

     total cpu time spent up to now is      166.6 secs

     total energy              =     -79.90159486 Ry
     estimated scf accuracy    <       0.00000008 Ry

     iteration #  9     ecut=    80.00 Ry     beta= 0.30
     Davidson diagonalization with overlap
     ethr =  4.06E-10,  avg # of iterations =  2.0

     total cpu time spent up to now is      170.0 secs

     total energy              =     -79.90159487 Ry
     estimated scf accuracy    <          1.7E-09 Ry

     iteration # 10     ecut=    80.00 Ry     beta= 0.30
     Davidson diagonalization with overlap
     ethr =  8.68E-12,  avg # of iterations =  2.2

     total cpu time spent up to now is      173.8 secs

     End of self-consistent calculation

     Number of k-points >= 100: set verbosity='high' to print the bands.

     the Fermi energy is    18.6541 ev

!    total energy              =     -79.90159487 Ry
     estimated scf accuracy    <          1.4E-11 Ry
     smearing contrib. (-TS)   =      -0.00014578 Ry
     internal energy E=F+TS    =     -79.90144910 Ry

     The total energy is F=E-TS. E is the sum of the following terms:
     one-electron contribution =      19.41610954 Ry
     hartree contribution      =       5.28801365 Ry
     xc contribution           =     -27.72203794 Ry
     ewald contribution        =     -76.88353435 Ry

     convergence has been achieved in  10 iterations

     Forces acting on atoms (cartesian axes, Ry/au):

     atom    1 type  1   force =    -0.00000000   -0.00000000    0.00000000
     atom    2 type  2   force =     0.01930083   -0.01930083   -0.01930083
     atom    3 type  2   force =    -0.01930083    0.01930083    0.01930083
     atom    4 type  2   force =     0.00587781   -0.00587781   -0.00587781
     atom    5 type  2   force =    -0.00587781    0.00587781    0.00587781
     atom    6 type  2   force =    -0.04857461    0.04857461    0.13199385
     atom    7 type  2   force =     0.04857461   -0.04857461   -0.13199385
     atom    8 type  2   force =    -0.13199385    0.04857461    0.04857461
     atom    9 type  2   force =     0.13199385   -0.04857461   -0.04857461
     atom   10 type  2   force =    -0.04857461    0.13199385    0.04857461
     atom   11 type  2   force =     0.04857461   -0.13199385   -0.04857461

     Total force =     0.367819     Total SCF correction =     0.000003


     Computing stress (Cartesian axis) and pressure

          total   stress  (Ry/bohr**3)                   (kbar)     P=     2914.28
   0.01981089  -0.00119082  -0.00119082         2914.28     -175.18     -175.18
  -0.00119082   0.01981089   0.00119082         -175.18     2914.28      175.18
  -0.00119082   0.00119082   0.01981089         -175.18      175.18     2914.28

     Energy error            =      1.5E-01 Ry
     Gradient error          =      1.3E-01 Ry/Bohr
     Cell gradient error     =      1.8E+02 kbar

     number of scf cycles    =   4
     number of bfgs steps    =   2

     enthalpy           old  =     -76.1292310032 Ry
     enthalpy           new  =     -76.2801455632 Ry

     CASE: enthalpy          _new < enthalpy          _old

     new trust radius        =       0.1516831865 bohr
     new conv_thr            =       0.0000000010 Ry

     new unit-cell volume =    170.27483 a.u.^3 (    25.23213 Ang^3 )
     density =      6.42969 g/cm^3

CELL_PARAMETERS (alat=  9.00000000)
  -0.513710286   0.047580274   0.513710286
  -0.047580274   0.513710286   0.513710286
  -0.513710286   0.513710286   0.047580274

ATOMIC_POSITIONS (crystal)
Sr               0.0000000000        0.0000000000       -0.0000000000
H                0.2475019688        0.2475019688        0.2475019688
H                0.7524980312        0.7524980312        0.7524980312
H                0.3462875461        0.3462875461        0.3462875461
H                0.6537124539        0.6537124539        0.6537124539
H                0.3394060654        0.3394060654        0.7189751135
H                0.6605939346        0.6605939346        0.2810248865
H                0.3394060654        0.7189751135        0.3394060654
H                0.6605939346        0.2810248865        0.6605939346
H                0.7189751135        0.3394060654        0.3394060654
H                0.2810248865        0.6605939346        0.6605939346



     Writing config-only to output data dir ./out/srh10.save/ :
     XML data file
     NEW-OLD atomic charge density approx. for the potential
     New effective cutoffs (rho, wfc):  732.79   92.05

     total cpu time spent up to now is      175.6 secs

     per-process dynamical memory:    50.4 Mb

     Self-consistent Calculation

     iteration #  1     ecut=    80.00 Ry     beta= 0.30
     Davidson diagonalization with overlap
     ethr =  1.00E-06,  avg # of iterations = 10.7

     total cpu time spent up to now is      185.0 secs

     total energy              =     -79.86655588 Ry
     estimated scf accuracy    <       0.01391626 Ry

     iteration #  2     ecut=    80.00 Ry     beta= 0.30
     Davidson diagonalization with overlap
     ethr =  6.96E-05,  avg # of iterations =  1.0

     total cpu time spent up to now is      187.9 secs

     total energy              =     -79.86528234 Ry
     estimated scf accuracy    <       0.00508825 Ry

     iteration #  3     ecut=    80.00 Ry     beta= 0.30
     Davidson diagonalization with overlap
     ethr =  2.54E-05,  avg # of iterations =  1.8

     total cpu time spent up to now is      191.0 secs

     total energy              =     -79.86570030 Ry
     estimated scf accuracy    <       0.00027949 Ry

     iteration #  4     ecut=    80.00 Ry     beta= 0.30
     Davidson diagonalization with overlap
     ethr =  1.40E-06,  avg # of iterations =  2.2

     total cpu time spent up to now is      194.3 secs

     total energy              =     -79.86573135 Ry
     estimated scf accuracy    <       0.00000587 Ry

     iteration #  5     ecut=    80.00 Ry     beta= 0.30
     Davidson diagonalization with overlap
     ethr =  2.93E-08,  avg # of iterations =  2.2

     total cpu time spent up to now is      197.9 secs

     total energy              =     -79.86573225 Ry
     estimated scf accuracy    <       0.00000149 Ry

     iteration #  6     ecut=    80.00 Ry     beta= 0.30
     Davidson diagonalization with overlap
     ethr =  7.46E-09,  avg # of iterations =  2.0

     total cpu time spent up to now is      201.2 secs

     total energy              =     -79.86573236 Ry
     estimated scf accuracy    <       0.00000015 Ry

     iteration #  7     ecut=    80.00 Ry     beta= 0.30
     Davidson diagonalization with overlap
     ethr =  7.50E-10,  avg # of iterations =  2.1

     total cpu time spent up to now is      204.7 secs

     total energy              =     -79.86573239 Ry
     estimated scf accuracy    <          8.7E-09 Ry

     iteration #  8     ecut=    80.00 Ry     beta= 0.30
     Davidson diagonalization with overlap
     ethr =  4.35E-11,  avg # of iterations =  1.9

     total cpu time spent up to now is      207.8 secs

     total energy              =     -79.86573239 Ry
     estimated scf accuracy    <          1.6E-09 Ry

     iteration #  9     ecut=    80.00 Ry     beta= 0.30
     Davidson diagonalization with overlap
     ethr =  7.87E-12,  avg # of iterations =  1.9

     total cpu time spent up to now is      210.9 secs

     End of self-consistent calculation

     Number of k-points >= 100: set verbosity='high' to print the bands.

     the Fermi energy is    19.6902 ev

!    total energy              =     -79.86573239 Ry
     estimated scf accuracy    <          9.7E-11 Ry
     smearing contrib. (-TS)   =      -0.00009710 Ry
     internal energy E=F+TS    =     -79.86563530 Ry

     The total energy is F=E-TS. E is the sum of the following terms:
     one-electron contribution =      21.25521222 Ry
     hartree contribution      =       4.96599167 Ry
     xc contribution           =     -27.87971534 Ry
     ewald contribution        =     -78.20712384 Ry

     convergence has been achieved in   9 iterations

     Forces acting on atoms (cartesian axes, Ry/au):

     atom    1 type  1   force =    -0.00000000   -0.00000000    0.00000000
     atom    2 type  2   force =    -0.00095096    0.00095096    0.00095096
     atom    3 type  2   force =     0.00095096   -0.00095096   -0.00095096
     atom    4 type  2   force =     0.01019340   -0.01019340   -0.01019340
     atom    5 type  2   force =    -0.01019340    0.01019340    0.01019340
     atom    6 type  2   force =    -0.03297843    0.03297843    0.00929681
     atom    7 type  2   force =     0.03297843   -0.03297843   -0.00929681
     atom    8 type  2   force =    -0.00929681    0.03297843    0.03297843
     atom    9 type  2   force =     0.00929681   -0.03297843   -0.03297843
     atom   10 type  2   force =    -0.03297843    0.00929681    0.03297843
     atom   11 type  2   force =     0.03297843   -0.00929681   -0.03297843

     Total force =     0.119157     Total SCF correction =     0.000007


     Computing stress (Cartesian axis) and pressure

          total   stress  (Ry/bohr**3)                   (kbar)     P=     3254.50
   0.02212365  -0.00005525  -0.00005525         3254.50       -8.13       -8.13
  -0.00005525   0.02212365   0.00005525           -8.13     3254.50        8.13
  -0.00005525   0.00005525   0.02212365           -8.13        8.13     3254.50

     Energy error            =      1.1E-01 Ry
     Gradient error          =      3.3E-02 Ry/Bohr
     Cell gradient error     =      2.5E+02 kbar

     number of scf cycles    =   5
     number of bfgs steps    =   3

     enthalpy           old  =     -76.2801455632 Ry
     enthalpy           new  =     -76.3932179987 Ry

     CASE: enthalpy          _new < enthalpy          _old

     new trust radius        =       0.0875025493 bohr
     new conv_thr            =       0.0000000010 Ry

     new unit-cell volume =    174.01652 a.u.^3 (    25.78659 Ang^3 )
     density =      6.29144 g/cm^3

CELL_PARAMETERS (alat=  9.00000000)
  -0.519200739   0.051129876   0.519200739
  -0.051129876   0.519200739   0.519200739
  -0.519200739   0.519200739   0.051129876

ATOMIC_POSITIONS (crystal)
Sr               0.0000000000       -0.0000000000       -0.0000000000
H                0.2475589793        0.2475589793        0.2475589793
H                0.7524410207        0.7524410207        0.7524410207
H                0.3437985398        0.3437985398        0.3437985398
H                0.6562014602        0.6562014602        0.6562014602
H                0.3428312414        0.3428312414        0.7274772626
H                0.6571687586        0.6571687586        0.2725227374
H                0.3428312414        0.7274772626        0.3428312414
H                0.6571687586        0.2725227374        0.6571687586
H                0.7274772626        0.3428312414        0.3428312414
H                0.2725227374        0.6571687586        0.6571687586



     Writing config-only to output data dir ./out/srh10.save/ :
     XML data file
     NEW-OLD atomic charge density approx. for the potential
     New effective cutoffs (rho, wfc):  726.56   91.28

     total cpu time spent up to now is      212.7 secs

     per-process dynamical memory:    50.4 Mb

     Self-consistent Calculation

     iteration #  1     ecut=    80.00 Ry     beta= 0.30
     Davidson diagonalization with overlap
     ethr =  1.00E-06,  avg # of iterations =  7.6

     total cpu time spent up to now is      220.2 secs

     total energy              =     -79.96462017 Ry
     estimated scf accuracy    <       0.00252450 Ry

     iteration #  2     ecut=    80.00 Ry     beta= 0.30
     Davidson diagonalization with overlap
     ethr =  1.26E-05,  avg # of iterations =  1.0

     total cpu time spent up to now is      223.1 secs

     total energy              =     -79.96439923 Ry
     estimated scf accuracy    <       0.00109350 Ry

     iteration #  3     ecut=    80.00 Ry     beta= 0.30
     Davidson diagonalization with overlap
     ethr =  5.47E-06,  avg # of iterations =  1.1

     total cpu time spent up to now is      226.0 secs

     total energy              =     -79.96444609 Ry
     estimated scf accuracy    <       0.00002407 Ry

     iteration #  4     ecut=    80.00 Ry     beta= 0.30
     Davidson diagonalization with overlap
     ethr =  1.20E-07,  avg # of iterations =  2.1

     total cpu time spent up to now is      229.4 secs

     total energy              =     -79.96445078 Ry
     estimated scf accuracy    <       0.00000090 Ry

     iteration #  5     ecut=    80.00 Ry     beta= 0.30
     Davidson diagonalization with overlap
     ethr =  4.51E-09,  avg # of iterations =  2.3

     total cpu time spent up to now is      233.1 secs

     total energy              =     -79.96445091 Ry
     estimated scf accuracy    <       0.00000022 Ry

     iteration #  6     ecut=    80.00 Ry     beta= 0.30
     Davidson diagonalization with overlap
     ethr =  1.08E-09,  avg # of iterations =  1.9

     total cpu time spent up to now is      236.2 secs

     total energy              =     -79.96445094 Ry
     estimated scf accuracy    <       0.00000001 Ry

     iteration #  7     ecut=    80.00 Ry     beta= 0.30
     Davidson diagonalization with overlap
     ethr =  6.28E-11,  avg # of iterations =  2.2

     total cpu time spent up to now is      239.8 secs

     total energy              =     -79.96445094 Ry
     estimated scf accuracy    <          1.3E-09 Ry

     iteration #  8     ecut=    80.00 Ry     beta= 0.30
     Davidson diagonalization with overlap
     ethr =  6.60E-12,  avg # of iterations =  1.2

     total cpu time spent up to now is      242.8 secs

     End of self-consistent calculation

     Number of k-points >= 100: set verbosity='high' to print the bands.

     the Fermi energy is    19.4075 ev

!    total energy              =     -79.96445094 Ry
     estimated scf accuracy    <          5.7E-10 Ry
     smearing contrib. (-TS)   =      -0.00007442 Ry
     internal energy E=F+TS    =     -79.96437652 Ry

     The total energy is F=E-TS. E is the sum of the following terms:
     one-electron contribution =      20.45602433 Ry
     hartree contribution      =       5.04782770 Ry
     xc contribution           =     -27.82481240 Ry
     ewald contribution        =     -77.64341615 Ry

     convergence has been achieved in   8 iterations

     Forces acting on atoms (cartesian axes, Ry/au):

     atom    1 type  1   force =     0.00000000    0.00000000    0.00000000
     atom    2 type  2   force =    -0.00099197    0.00099197    0.00099197
     atom    3 type  2   force =     0.00099197   -0.00099197   -0.00099197
     atom    4 type  2   force =     0.00164743   -0.00164743   -0.00164743
     atom    5 type  2   force =    -0.00164743    0.00164743    0.00164743
     atom    6 type  2   force =    -0.02576885    0.02576885   -0.03107584
     atom    7 type  2   force =     0.02576885   -0.02576885    0.03107584
     atom    8 type  2   force =     0.03107584    0.02576885    0.02576885
     atom    9 type  2   force =    -0.03107584   -0.02576885   -0.02576885
     atom   10 type  2   force =    -0.02576885   -0.03107584    0.02576885
     atom   11 type  2   force =     0.02576885    0.03107584   -0.02576885

     Total force =     0.117409     Total SCF correction =     0.000016


     Computing stress (Cartesian axis) and pressure

          total   stress  (Ry/bohr**3)                   (kbar)     P=     3085.71
   0.02097622   0.00019890   0.00019890         3085.71       29.26       29.26
   0.00019890   0.02097622  -0.00019890           29.26     3085.71      -29.26
   0.00019890  -0.00019890   0.02097622           29.26      -29.26     3085.71

     Energy error            =      2.2E-02 Ry
     Gradient error          =      3.1E-02 Ry/Bohr
     Cell gradient error     =      8.6E+01 kbar

     number of scf cycles    =   6
     number of bfgs steps    =   4

     enthalpy           old  =     -76.3932179987 Ry
     enthalpy           new  =     -76.4156301806 Ry

     CASE: enthalpy          _new < enthalpy          _old

     new trust radius        =       0.1351679089 bohr
     new conv_thr            =       0.0000000010 Ry

     new unit-cell volume =    176.76315 a.u.^3 (    26.19360 Ang^3 )
     density =      6.19368 g/cm^3

CELL_PARAMETERS (alat=  9.00000000)
  -0.521788228   0.051160913   0.521788228
  -0.051160913   0.521788228   0.521788228
  -0.521788228   0.521788228   0.051160913

ATOMIC_POSITIONS (crystal)
Sr               0.0000000000       -0.0000000000       -0.0000000000
H                0.2474457169        0.2474457169        0.2474457169
H                0.7525542831        0.7525542831        0.7525542831
H                0.3408277158        0.3408277158        0.3408277158
H                0.6591722842        0.6591722842        0.6591722842
H                0.3420024394        0.3420024394        0.7488393703
H                0.6579975606        0.6579975606        0.2511606297
H                0.3420024394        0.7488393703        0.3420024394
H                0.6579975606        0.2511606297        0.6579975606
H                0.7488393703        0.3420024394        0.3420024394
H                0.2511606297        0.6579975606        0.6579975606



     Writing config-only to output data dir ./out/srh10.save/ :
     XML data file
     NEW-OLD atomic charge density approx. for the potential
     New effective cutoffs (rho, wfc):  718.70   90.30

     total cpu time spent up to now is      244.6 secs

     per-process dynamical memory:    50.4 Mb

     Self-consistent Calculation

     iteration #  1     ecut=    80.00 Ry     beta= 0.30
     Davidson diagonalization with overlap
     c_bands:  1 eigenvalues not converged
     ethr =  1.00E-06,  avg # of iterations =  8.1

     total cpu time spent up to now is      252.5 secs

     total energy              =     -80.04967631 Ry
     estimated scf accuracy    <       0.00571350 Ry

     iteration #  2     ecut=    80.00 Ry     beta= 0.30
     Davidson diagonalization with overlap
     ethr =  2.86E-05,  avg # of iterations =  1.0

     total cpu time spent up to now is      255.4 secs

     total energy              =     -80.04922327 Ry
     estimated scf accuracy    <       0.00206171 Ry

     iteration #  3     ecut=    80.00 Ry     beta= 0.30
     Davidson diagonalization with overlap
     ethr =  1.03E-05,  avg # of iterations =  1.9

     total cpu time spent up to now is      258.5 secs

     total energy              =     -80.04940784 Ry
     estimated scf accuracy    <       0.00012208 Ry

     iteration #  4     ecut=    80.00 Ry     beta= 0.30
     Davidson diagonalization with overlap
     ethr =  6.10E-07,  avg # of iterations =  1.8

     total cpu time spent up to now is      261.6 secs

     total energy              =     -80.04941787 Ry
     estimated scf accuracy    <       0.00000100 Ry

     iteration #  5     ecut=    80.00 Ry     beta= 0.30
     Davidson diagonalization with overlap
     ethr =  4.99E-09,  avg # of iterations =  2.9

     total cpu time spent up to now is      265.2 secs

     total energy              =     -80.04941835 Ry
     estimated scf accuracy    <       0.00000035 Ry

     iteration #  6     ecut=    80.00 Ry     beta= 0.30
     Davidson diagonalization with overlap
     ethr =  1.76E-09,  avg # of iterations =  1.1

     total cpu time spent up to now is      268.1 secs

     total energy              =     -80.04941838 Ry
     estimated scf accuracy    <       0.00000005 Ry

     iteration #  7     ecut=    80.00 Ry     beta= 0.30
     Davidson diagonalization with overlap
     ethr =  2.28E-10,  avg # of iterations =  2.1

     total cpu time spent up to now is      271.4 secs

     total energy              =     -80.04941838 Ry
     estimated scf accuracy    <          2.4E-09 Ry

     iteration #  8     ecut=    80.00 Ry     beta= 0.30
     Davidson diagonalization with overlap
     ethr =  1.18E-11,  avg # of iterations =  2.1

     total cpu time spent up to now is      275.2 secs

     End of self-consistent calculation

     Number of k-points >= 100: set verbosity='high' to print the bands.

     the Fermi energy is    19.2974 ev

!    total energy              =     -80.04941839 Ry
     estimated scf accuracy    <          2.9E-10 Ry
     smearing contrib. (-TS)   =       0.00007587 Ry
     internal energy E=F+TS    =     -80.04949426 Ry

     The total energy is F=E-TS. E is the sum of the following terms:
     one-electron contribution =      20.01488007 Ry
     hartree contribution      =       5.03643188 Ry
     xc contribution           =     -27.77618960 Ry
     ewald contribution        =     -77.32461661 Ry

     convergence has been achieved in   8 iterations

     Forces acting on atoms (cartesian axes, Ry/au):

     atom    1 type  1   force =     0.00000000   -0.00000000    0.00000000
     atom    2 type  2   force =     0.00363156   -0.00363156   -0.00363156
     atom    3 type  2   force =    -0.00363156    0.00363156    0.00363156
     atom    4 type  2   force =    -0.01276602    0.01276602    0.01276602
     atom    5 type  2   force =     0.01276602   -0.01276602   -0.01276602
     atom    6 type  2   force =    -0.02842736    0.02842736   -0.03518155
     atom    7 type  2   force =     0.02842736   -0.02842736    0.03518155
     atom    8 type  2   force =     0.03518155    0.02842736    0.02842736
     atom    9 type  2   force =    -0.03518155   -0.02842736   -0.02842736
     atom   10 type  2   force =    -0.02842736   -0.03518155    0.02842736
     atom   11 type  2   force =     0.02842736    0.03518155   -0.02842736

     Total force =     0.134836     Total SCF correction =     0.000009


     Computing stress (Cartesian axis) and pressure

          total   stress  (Ry/bohr**3)                   (kbar)     P=     2953.49
   0.02007744   0.00031356   0.00031356         2953.49       46.13       46.13
   0.00031356   0.02007744  -0.00031356           46.13     2953.49      -46.13
   0.00031356  -0.00031356   0.02007744           46.13      -46.13     2953.49

     Energy error            =      2.9E-02 Ry
     Gradient error          =      3.5E-02 Ry/Bohr
     Cell gradient error     =      4.7E+01 kbar

     number of scf cycles    =   7
     number of bfgs steps    =   5

     enthalpy           old  =     -76.4156301806 Ry
     enthalpy           new  =     -76.4445839797 Ry

     CASE: enthalpy          _new < enthalpy          _old


     WARNING: bfgs curvature condition failed, Theta= 0.848
     new trust radius        =       0.1494275588 bohr
     new conv_thr            =       0.0000000010 Ry

     new unit-cell volume =    178.96413 a.u.^3 (    26.51975 Ang^3 )
     density =      6.11750 g/cm^3

CELL_PARAMETERS (alat=  9.00000000)
  -0.523732405   0.050985045   0.523732405
  -0.050985045   0.523732405   0.523732405
  -0.523732405   0.523732405   0.050985045

ATOMIC_POSITIONS (crystal)
Sr               0.0000000000        0.0000000000       -0.0000000000
H                0.2471146110        0.2471146110        0.2471146110
H                0.7528853890        0.7528853890        0.7528853890
H                0.3380998769        0.3380998769        0.3380998769
H                0.6619001231        0.6619001231        0.6619001231
H                0.3409876695        0.3409876695        0.7724525439
H                0.6590123305        0.6590123305        0.2275474561
H                0.3409876695        0.7724525439        0.3409876695
H                0.6590123305        0.2275474561        0.6590123305
H                0.7724525439        0.3409876695        0.3409876695
H                0.2275474561        0.6590123305        0.6590123305



     Writing config-only to output data dir ./out/srh10.save/ :
     XML data file
     NEW-OLD atomic charge density approx. for the potential
     New effective cutoffs (rho, wfc):  712.29   89.49

     total cpu time spent up to now is      277.0 secs

     per-process dynamical memory:    50.4 Mb

     Self-consistent Calculation

     iteration #  1     ecut=    80.00 Ry     beta= 0.30
     Davidson diagonalization with overlap
     ethr =  1.00E-06,  avg # of iterations =  7.9

     total cpu time spent up to now is      284.7 secs

     total energy              =     -80.13388700 Ry
     estimated scf accuracy    <       0.00758582 Ry

     iteration #  2     ecut=    80.00 Ry     beta= 0.30
     Davidson diagonalization with overlap
     ethr =  3.79E-05,  avg # of iterations =  1.0

     total cpu time spent up to now is      287.6 secs

     total energy              =     -80.13325397 Ry
     estimated scf accuracy    <       0.00258792 Ry

     iteration #  3     ecut=    80.00 Ry     beta= 0.30
     Davidson diagonalization with overlap
     ethr =  1.29E-05,  avg # of iterations =  2.0

     total cpu time spent up to now is      290.9 secs

     total energy              =     -80.13353531 Ry
     estimated scf accuracy    <       0.00013774 Ry

     iteration #  4     ecut=    80.00 Ry     beta= 0.30
     Davidson diagonalization with overlap
     ethr =  6.89E-07,  avg # of iterations =  2.0

     total cpu time spent up to now is      294.1 secs

     total energy              =     -80.13354656 Ry
     estimated scf accuracy    <       0.00000206 Ry

     iteration #  5     ecut=    80.00 Ry     beta= 0.30
     Davidson diagonalization with overlap
     ethr =  1.03E-08,  avg # of iterations =  2.6

     total cpu time spent up to now is      297.5 secs

     total energy              =     -80.13354722 Ry
     estimated scf accuracy    <       0.00000055 Ry

     iteration #  6     ecut=    80.00 Ry     beta= 0.30
     Davidson diagonalization with overlap
     ethr =  2.76E-09,  avg # of iterations =  2.0

     total cpu time spent up to now is      300.7 secs

     total energy              =     -80.13354726 Ry
     estimated scf accuracy    <       0.00000010 Ry

     iteration #  7     ecut=    80.00 Ry     beta= 0.30
     Davidson diagonalization with overlap
     ethr =  5.04E-10,  avg # of iterations =  1.7

     total cpu time spent up to now is      303.7 secs

     total energy              =     -80.13354727 Ry
     estimated scf accuracy    <          8.5E-09 Ry

     iteration #  8     ecut=    80.00 Ry     beta= 0.30
     Davidson diagonalization with overlap
     ethr =  4.24E-11,  avg # of iterations =  2.0

     total cpu time spent up to now is      307.2 secs

     End of self-consistent calculation

     Number of k-points >= 100: set verbosity='high' to print the bands.

     the Fermi energy is    19.0980 ev

!    total energy              =     -80.13354727 Ry
     estimated scf accuracy    <          5.2E-10 Ry
     smearing contrib. (-TS)   =       0.00012729 Ry
     internal energy E=F+TS    =     -80.13367455 Ry

     The total energy is F=E-TS. E is the sum of the following terms:
     one-electron contribution =      19.70602688 Ry
     hartree contribution      =       5.00938838 Ry
     xc contribution           =     -27.73550682 Ry
     ewald contribution        =     -77.11358300 Ry

     convergence has been achieved in   8 iterations

     Forces acting on atoms (cartesian axes, Ry/au):

     atom    1 type  1   force =    -0.00000000   -0.00000000   -0.00000000
     atom    2 type  2   force =     0.01028037   -0.01028037   -0.01028037
     atom    3 type  2   force =    -0.01028037    0.01028037    0.01028037
     atom    4 type  2   force =    -0.02765718    0.02765718    0.02765718
     atom    5 type  2   force =     0.02765718   -0.02765718   -0.02765718
     atom    6 type  2   force =    -0.04147696    0.04147696   -0.02892191
     atom    7 type  2   force =     0.04147696   -0.04147696    0.02892191
     atom    8 type  2   force =     0.02892191    0.04147696    0.04147696
     atom    9 type  2   force =    -0.02892191   -0.04147696   -0.04147696
     atom   10 type  2   force =    -0.04147696   -0.02892191    0.04147696
     atom   11 type  2   force =     0.04147696    0.02892191   -0.04147696

     Total force =     0.175746     Total SCF correction =     0.000011


     Computing stress (Cartesian axis) and pressure

          total   stress  (Ry/bohr**3)                   (kbar)     P=     2853.96
   0.01940080   0.00040316   0.00040316         2853.96       59.31       59.31
   0.00040316   0.01940080  -0.00040316           59.31     2853.96      -59.31
   0.00040316  -0.00040316   0.01940080           59.31      -59.31     2853.96

     Energy error            =      3.9E-02 Ry
     Gradient error          =      4.1E-02 Ry/Bohr
     Cell gradient error     =      1.5E+02 kbar

     number of scf cycles    =   8
     number of bfgs steps    =   6

     enthalpy           old  =     -76.4445839797 Ry
     enthalpy           new  =     -76.4838270193 Ry

     CASE: enthalpy          _new < enthalpy          _old


     WARNING: bfgs curvature condition failed, Theta= 0.040
     new trust radius        =       0.2249825676 bohr
     new conv_thr            =       0.0000000010 Ry

     new unit-cell volume =    182.27706 a.u.^3 (    27.01067 Ang^3 )
     density =      6.00632 g/cm^3

CELL_PARAMETERS (alat=  9.00000000)
  -0.526643365   0.050748840   0.526643365
  -0.050748840   0.526643365   0.526643365
  -0.526643365   0.526643365   0.050748840

ATOMIC_POSITIONS (crystal)
Sr               0.0000000000        0.0000000000       -0.0000000000
H                0.2466092055        0.2466092055        0.2466092055
H                0.7533907945        0.7533907945        0.7533907945
H                0.3340215764        0.3340215764        0.3340215764
H                0.6659784236        0.6659784236        0.6659784236
H                0.3394987085        0.3394987085        0.8078354743
H                0.6605012915        0.6605012915        0.1921645257
H                0.3394987085        0.8078354743        0.3394987085
H                0.6605012915        0.1921645257        0.6605012915
H                0.8078354743        0.3394987085        0.3394987085
H                0.1921645257        0.6605012915        0.6605012915



     Writing config-only to output data dir ./out/srh10.save/ :
     XML data file
     NEW-OLD atomic charge density approx. for the potential
     New effective cutoffs (rho, wfc):  702.93   88.31

     total cpu time spent up to now is      309.0 secs

     per-process dynamical memory:    50.9 Mb

     Self-consistent Calculation

     iteration #  1     ecut=    80.00 Ry     beta= 0.30
     Davidson diagonalization with overlap
     c_bands:  1 eigenvalues not converged
     ethr =  1.00E-06,  avg # of iterations =  8.7

     total cpu time spent up to now is      317.2 secs

     total energy              =     -80.27976024 Ry
     estimated scf accuracy    <       0.01687863 Ry

     iteration #  2     ecut=    80.00 Ry     beta= 0.30
     Davidson diagonalization with overlap
     ethr =  8.44E-05,  avg # of iterations =  1.0

     total cpu time spent up to now is      320.1 secs

     total energy              =     -80.27830339 Ry
     estimated scf accuracy    <       0.00565868 Ry

     iteration #  3     ecut=    80.00 Ry     beta= 0.30
     Davidson diagonalization with overlap
     ethr =  2.83E-05,  avg # of iterations =  2.0

     total cpu time spent up to now is      323.4 secs

     total energy              =     -80.27901854 Ry
     estimated scf accuracy    <       0.00025806 Ry

     iteration #  4     ecut=    80.00 Ry     beta= 0.30
     Davidson diagonalization with overlap
     ethr =  1.29E-06,  avg # of iterations =  2.2

     total cpu time spent up to now is      326.7 secs

     total energy              =     -80.27903857 Ry
     estimated scf accuracy    <       0.00000442 Ry

     iteration #  5     ecut=    80.00 Ry     beta= 0.30
     Davidson diagonalization with overlap
     ethr =  2.21E-08,  avg # of iterations =  2.5

     total cpu time spent up to now is      330.0 secs

     total energy              =     -80.27903971 Ry
     estimated scf accuracy    <       0.00000137 Ry

     iteration #  6     ecut=    80.00 Ry     beta= 0.30
     Davidson diagonalization with overlap
     ethr =  6.83E-09,  avg # of iterations =  1.8

     total cpu time spent up to now is      333.2 secs

     total energy              =     -80.27903982 Ry
     estimated scf accuracy    <       0.00000011 Ry

     iteration #  7     ecut=    80.00 Ry     beta= 0.30
     Davidson diagonalization with overlap
     ethr =  5.62E-10,  avg # of iterations =  1.6

     total cpu time spent up to now is      336.2 secs

     total energy              =     -80.27903982 Ry
     estimated scf accuracy    <       0.00000004 Ry

     iteration #  8     ecut=    80.00 Ry     beta= 0.30
     Davidson diagonalization with overlap
     ethr =  1.79E-10,  avg # of iterations =  2.0

     total cpu time spent up to now is      339.6 secs

     End of self-consistent calculation

     Number of k-points >= 100: set verbosity='high' to print the bands.

     the Fermi energy is    18.6654 ev

!    total energy              =     -80.27903983 Ry
     estimated scf accuracy    <          9.2E-10 Ry
     smearing contrib. (-TS)   =       0.00006764 Ry
     internal energy E=F+TS    =     -80.27910747 Ry

     The total energy is F=E-TS. E is the sum of the following terms:
     one-electron contribution =      19.20616877 Ry
     hartree contribution      =       5.01770624 Ry
     xc contribution           =     -27.66299663 Ry
     ewald contribution        =     -76.83998584 Ry

     convergence has been achieved in   8 iterations

     Forces acting on atoms (cartesian axes, Ry/au):

     atom    1 type  1   force =    -0.00000000   -0.00000000   -0.00000000
     atom    2 type  2   force =     0.01895373   -0.01895373   -0.01895373
     atom    3 type  2   force =    -0.01895373    0.01895373    0.01895373
     atom    4 type  2   force =    -0.05212595    0.05212595    0.05212595
     atom    5 type  2   force =     0.05212595   -0.05212595   -0.05212595
     atom    6 type  2   force =    -0.04869860    0.04869860    0.00224347
     atom    7 type  2   force =     0.04869860   -0.04869860   -0.00224347
     atom    8 type  2   force =    -0.00224347    0.04869860    0.04869860
     atom    9 type  2   force =     0.00224347   -0.04869860   -0.04869860
     atom   10 type  2   force =    -0.04869860    0.00224347    0.04869860
     atom   11 type  2   force =     0.04869860   -0.00224347   -0.04869860

     Total force =     0.216673     Total SCF correction =     0.000013


     Computing stress (Cartesian axis) and pressure

          total   stress  (Ry/bohr**3)                   (kbar)     P=     2684.54
   0.01824910   0.00035101   0.00035101         2684.54       51.63       51.63
   0.00035101   0.01824910  -0.00035101           51.63     2684.54      -51.63
   0.00035101  -0.00035101   0.01824910           51.63      -51.63     2684.54

     Energy error            =      7.8E-02 Ry
     Gradient error          =      5.2E-02 Ry/Bohr
     Cell gradient error     =      3.2E+02 kbar

     number of scf cycles    =   9
     number of bfgs steps    =   7

     enthalpy           old  =     -76.4838270193 Ry
     enthalpy           new  =     -76.5617570492 Ry

     CASE: enthalpy          _new < enthalpy          _old


     WARNING: bfgs curvature condition failed, Theta= 0.192
     new trust radius        =       0.3393620013 bohr
     new conv_thr            =       0.0000000010 Ry

     new unit-cell volume =    187.47680 a.u.^3 (    27.78120 Ang^3 )
     density =      5.83973 g/cm^3

CELL_PARAMETERS (alat=  9.00000000)
  -0.531018941   0.050158193   0.531018941
  -0.050158193   0.531018941   0.531018941
  -0.531018941   0.531018941   0.050158193

ATOMIC_POSITIONS (crystal)
Sr               0.0000000000        0.0000000000       -0.0000000000
H                0.2458908042        0.2458908042        0.2458908042
H                0.7541091958        0.7541091958        0.7541091958
H                0.3277885528        0.3277885528        0.3277885528
H                0.6722114472        0.6722114472        0.6722114472
H                0.3370651840        0.3370651840        0.8611309474
H                0.6629348160        0.6629348160        0.1388690526
H                0.3370651840        0.8611309474        0.3370651840
H                0.6629348160        0.1388690526        0.6629348160
H                0.8611309474        0.3370651840        0.3370651840
H                0.1388690526        0.6629348160        0.6629348160



     Writing config-only to output data dir ./out/srh10.save/ :
     XML data file
     NEW-OLD atomic charge density approx. for the potential
     New effective cutoffs (rho, wfc):  688.53   86.49

     total cpu time spent up to now is      341.4 secs

     per-process dynamical memory:    50.9 Mb

     Self-consistent Calculation

     iteration #  1     ecut=    80.00 Ry     beta= 0.30
     Davidson diagonalization with overlap
     c_bands:  1 eigenvalues not converged
     ethr =  1.00E-06,  avg # of iterations = 10.1

     total cpu time spent up to now is      350.6 secs

     total energy              =     -80.40981055 Ry
     estimated scf accuracy    <       0.03216372 Ry

     iteration #  2     ecut=    80.00 Ry     beta= 0.30
     Davidson diagonalization with overlap
     ethr =  1.61E-04,  avg # of iterations =  1.0

     total cpu time spent up to now is      353.5 secs

     total energy              =     -80.40718805 Ry
     estimated scf accuracy    <       0.01087142 Ry

     iteration #  3     ecut=    80.00 Ry     beta= 0.30
     Davidson diagonalization with overlap
     ethr =  5.44E-05,  avg # of iterations =  2.0

     total cpu time spent up to now is      356.9 secs

     total energy              =     -80.40881043 Ry
     estimated scf accuracy    <       0.00044419 Ry

     iteration #  4     ecut=    80.00 Ry     beta= 0.30
     Davidson diagonalization with overlap
     ethr =  2.22E-06,  avg # of iterations =  2.9

     total cpu time spent up to now is      360.4 secs

     total energy              =     -80.40884207 Ry
     estimated scf accuracy    <       0.00000736 Ry

     iteration #  5     ecut=    80.00 Ry     beta= 0.30
     Davidson diagonalization with overlap
     ethr =  3.68E-08,  avg # of iterations =  2.3

     total cpu time spent up to now is      363.6 secs

     total energy              =     -80.40884144 Ry
     estimated scf accuracy    <       0.00000348 Ry

     iteration #  6     ecut=    80.00 Ry     beta= 0.30
     Davidson diagonalization with overlap
     ethr =  1.74E-08,  avg # of iterations =  2.0

     total cpu time spent up to now is      366.8 secs

     total energy              =     -80.40884194 Ry
     estimated scf accuracy    <       0.00000025 Ry

     iteration #  7     ecut=    80.00 Ry     beta= 0.30
     Davidson diagonalization with overlap
     ethr =  1.25E-09,  avg # of iterations =  1.6

     total cpu time spent up to now is      369.9 secs

     total energy              =     -80.40884194 Ry
     estimated scf accuracy    <       0.00000012 Ry

     iteration #  8     ecut=    80.00 Ry     beta= 0.30
     Davidson diagonalization with overlap
     ethr =  6.08E-10,  avg # of iterations =  2.0

     total cpu time spent up to now is      373.2 secs

     total energy              =     -80.40884196 Ry
     estimated scf accuracy    <          1.5E-09 Ry

     iteration #  9     ecut=    80.00 Ry     beta= 0.30
     Davidson diagonalization with overlap
     ethr =  7.33E-12,  avg # of iterations =  2.8

     total cpu time spent up to now is      376.8 secs

     total energy              =     -80.40884196 Ry
     estimated scf accuracy    <          1.0E-09 Ry

     iteration # 10     ecut=    80.00 Ry     beta= 0.30
     Davidson diagonalization with overlap
     ethr =  5.17E-12,  avg # of iterations =  2.0

     total cpu time spent up to now is      380.4 secs

     End of self-consistent calculation

     Number of k-points >= 100: set verbosity='high' to print the bands.

     the Fermi energy is    17.8090 ev

!    total energy              =     -80.40884196 Ry
     estimated scf accuracy    <          3.0E-11 Ry
     smearing contrib. (-TS)   =      -0.00012814 Ry
     internal energy E=F+TS    =     -80.40871382 Ry

     The total energy is F=E-TS. E is the sum of the following terms:
     one-electron contribution =      18.13577002 Ry
     hartree contribution      =       5.19032789 Ry
     xc contribution           =     -27.53166208 Ry
     ewald contribution        =     -76.20314965 Ry

     convergence has been achieved in  10 iterations

     Forces acting on atoms (cartesian axes, Ry/au):

     atom    1 type  1   force =     0.00000000    0.00000000    0.00000000
     atom    2 type  2   force =     0.03281879   -0.03281879   -0.03281879
     atom    3 type  2   force =    -0.03281879    0.03281879    0.03281879
     atom    4 type  2   force =    -0.10964008    0.10964008    0.10964008
     atom    5 type  2   force =     0.10964008   -0.10964008   -0.10964008
     atom    6 type  2   force =     0.01363555   -0.01363555    0.05241110
     atom    7 type  2   force =    -0.01363555    0.01363555   -0.05241110
     atom    8 type  2   force =    -0.05241110   -0.01363555   -0.01363555
     atom    9 type  2   force =     0.05241110    0.01363555    0.01363555
     atom   10 type  2   force =     0.01363555    0.05241110   -0.01363555
     atom   11 type  2   force =    -0.01363555   -0.05241110    0.01363555

     Total force =     0.311931     Total SCF correction =     0.000002


     Computing stress (Cartesian axis) and pressure

          total   stress  (Ry/bohr**3)                   (kbar)     P=     2425.95
   0.01649128  -0.00044184  -0.00044184         2425.95      -65.00      -65.00
  -0.00044184   0.01649128   0.00044184          -65.00     2425.95       65.00
  -0.00044184   0.00044184   0.01649128          -65.00       65.00     2425.95

     Energy error            =      2.4E-02 Ry
     Gradient error          =      1.1E-01 Ry/Bohr
     Cell gradient error     =      5.7E+02 kbar

     number of scf cycles    =  10
     number of bfgs steps    =   8

     enthalpy           old  =     -76.5617570492 Ry
     enthalpy           new  =     -76.5855177138 Ry

     CASE: enthalpy          _new < enthalpy          _old

     new trust radius        =       0.1324352112 bohr
     new conv_thr            =       0.0000000010 Ry

     new unit-cell volume =    181.65564 a.u.^3 (    26.91859 Ang^3 )
     density =      6.02686 g/cm^3

CELL_PARAMETERS (alat=  9.00000000)
  -0.530307316   0.058419152   0.530307316
  -0.058419152   0.530307316   0.530307316
  -0.530307316   0.530307316   0.058419152

ATOMIC_POSITIONS (crystal)
Sr               0.0000000000       -0.0000000000        0.0000000000
H                0.2442714916        0.2442714916        0.2442714916
H                0.7557285084        0.7557285084        0.7557285084
H                0.3354272443        0.3354272443        0.3354272443
H                0.6645727557        0.6645727557        0.6645727557
H                0.3406414868        0.3406414868        0.8441962171
H                0.6593585132        0.6593585132        0.1558037829
H                0.3406414868        0.8441962171        0.3406414868
H                0.6593585132        0.1558037829        0.6593585132
H                0.8441962171        0.3406414868        0.3406414868
H                0.1558037829        0.6593585132        0.6593585132



     Writing config-only to output data dir ./out/srh10.save/ :
     XML data file
     NEW-OLD atomic charge density approx. for the potential
     New effective cutoffs (rho, wfc):  714.70   89.81

     total cpu time spent up to now is      382.2 secs

     per-process dynamical memory:    50.9 Mb

     Self-consistent Calculation

     iteration #  1     ecut=    80.00 Ry     beta= 0.30
     Davidson diagonalization with overlap
     ethr =  1.00E-06,  avg # of iterations =  8.9

     total cpu time spent up to now is      390.6 secs

     total energy              =     -80.35212380 Ry
     estimated scf accuracy    <       0.00938918 Ry

     iteration #  2     ecut=    80.00 Ry     beta= 0.30
     Davidson diagonalization with overlap
     ethr =  4.69E-05,  avg # of iterations =  1.0

     total cpu time spent up to now is      393.5 secs

     total energy              =     -80.35138530 Ry
     estimated scf accuracy    <       0.00295667 Ry

     iteration #  3     ecut=    80.00 Ry     beta= 0.30
     Davidson diagonalization with overlap
     ethr =  1.48E-05,  avg # of iterations =  2.0

     total cpu time spent up to now is      397.0 secs

     total energy              =     -80.35182992 Ry
     estimated scf accuracy    <       0.00012322 Ry

     iteration #  4     ecut=    80.00 Ry     beta= 0.30
     Davidson diagonalization with overlap
     ethr =  6.16E-07,  avg # of iterations =  1.9

     total cpu time spent up to now is      400.1 secs

     total energy              =     -80.35183903 Ry
     estimated scf accuracy    <       0.00000600 Ry

     iteration #  5     ecut=    80.00 Ry     beta= 0.30
     Davidson diagonalization with overlap
     ethr =  3.00E-08,  avg # of iterations =  2.1

     total cpu time spent up to now is      403.2 secs

     total energy              =     -80.35183953 Ry
     estimated scf accuracy    <       0.00000097 Ry

     iteration #  6     ecut=    80.00 Ry     beta= 0.30
     Davidson diagonalization with overlap
     ethr =  4.84E-09,  avg # of iterations =  2.0

     total cpu time spent up to now is      406.7 secs

     total energy              =     -80.35183969 Ry
     estimated scf accuracy    <       0.00000003 Ry

     iteration #  7     ecut=    80.00 Ry     beta= 0.30
     Davidson diagonalization with overlap
     ethr =  1.75E-10,  avg # of iterations =  2.1

     total cpu time spent up to now is      410.1 secs

     total energy              =     -80.35183970 Ry
     estimated scf accuracy    <       0.00000002 Ry

     iteration #  8     ecut=    80.00 Ry     beta= 0.30
     Davidson diagonalization with overlap
     ethr =  8.86E-11,  avg # of iterations =  2.1

     total cpu time spent up to now is      413.3 secs

     End of self-consistent calculation

     Number of k-points >= 100: set verbosity='high' to print the bands.

     the Fermi energy is    18.4191 ev

!    total energy              =     -80.35183970 Ry
     estimated scf accuracy    <          3.4E-10 Ry
     smearing contrib. (-TS)   =       0.00012492 Ry
     internal energy E=F+TS    =     -80.35196462 Ry

     The total energy is F=E-TS. E is the sum of the following terms:
     one-electron contribution =      19.65334948 Ry
     hartree contribution      =       4.87891441 Ry
     xc contribution           =     -27.61725607 Ry
     ewald contribution        =     -77.26697245 Ry

     convergence has been achieved in   8 iterations

     Forces acting on atoms (cartesian axes, Ry/au):

     atom    1 type  1   force =    -0.00000000    0.00000000   -0.00000000
     atom    2 type  2   force =     0.00028858   -0.00028858   -0.00028858
     atom    3 type  2   force =    -0.00028858    0.00028858    0.00028858
     atom    4 type  2   force =    -0.05414148    0.05414148    0.05414148
     atom    5 type  2   force =     0.05414148   -0.05414148   -0.05414148
     atom    6 type  2   force =    -0.01693781    0.01693781    0.03007482
     atom    7 type  2   force =     0.01693781   -0.01693781   -0.03007482
     atom    8 type  2   force =    -0.03007482    0.01693781    0.01693781
     atom    9 type  2   force =     0.03007482   -0.01693781   -0.01693781
     atom   10 type  2   force =    -0.01693781    0.03007482    0.01693781
     atom   11 type  2   force =     0.01693781   -0.03007482   -0.01693781

     Total force =     0.162659     Total SCF correction =     0.000005


     Computing stress (Cartesian axis) and pressure

          total   stress  (Ry/bohr**3)                   (kbar)     P=     2622.03
   0.01782423   0.00057807   0.00057807         2622.03       85.04       85.04
   0.00057807   0.01782423  -0.00057807           85.04     2622.03      -85.04
   0.00057807  -0.00057807   0.01782423           85.04      -85.04     2622.03

     Energy error            =      6.2E-02 Ry
     Gradient error          =      5.4E-02 Ry/Bohr
     Cell gradient error     =      3.8E+02 kbar

     number of scf cycles    =  11
     number of bfgs steps    =   9

     enthalpy           old  =     -76.5855177138 Ry
     enthalpy           new  =     -76.6472298014 Ry

     CASE: enthalpy          _new < enthalpy          _old

     new trust radius        =       0.1468778355 bohr
     new conv_thr            =       0.0000000010 Ry

     new unit-cell volume =    176.43690 a.u.^3 (    26.14525 Ang^3 )
     density =      6.20513 g/cm^3

CELL_PARAMETERS (alat=  9.00000000)
  -0.522976054   0.053871814   0.522976054
  -0.053871814   0.522976054   0.522976054
  -0.522976054   0.522976054   0.053871814

ATOMIC_POSITIONS (crystal)
Sr              -0.0000000000       -0.0000000000        0.0000000000
H                0.2443589410        0.2443589410        0.2443589410
H                0.7556410590        0.7556410590        0.7556410590
H                0.3438472024        0.3438472024        0.3438472024
H                0.6561527976        0.6561527976        0.6561527976
H                0.3468303631        0.3468303631        0.8444357787
H                0.6531696369        0.6531696369        0.1555642213
H                0.3468303631        0.8444357787        0.3468303631
H                0.6531696369        0.1555642213        0.6531696369
H                0.8444357787        0.3468303631        0.3468303631
H                0.1555642213        0.6531696369        0.6531696369



     Writing config-only to output data dir ./out/srh10.save/ :
     XML data file
     NEW-OLD atomic charge density approx. for the potential
     New effective cutoffs (rho, wfc):  723.24   90.88

     total cpu time spent up to now is      415.2 secs

     per-process dynamical memory:    50.9 Mb

     Self-consistent Calculation

     iteration #  1     ecut=    80.00 Ry     beta= 0.30
     Davidson diagonalization with overlap
     ethr =  1.00E-06,  avg # of iterations =  7.8

     total cpu time spent up to now is      422.7 secs

     total energy              =     -80.29882915 Ry
     estimated scf accuracy    <       0.00473195 Ry

     iteration #  2     ecut=    80.00 Ry     beta= 0.30
     Davidson diagonalization with overlap
     ethr =  2.37E-05,  avg # of iterations =  1.0

     total cpu time spent up to now is      425.6 secs

     total energy              =     -80.29840510 Ry
     estimated scf accuracy    <       0.00188895 Ry

     iteration #  3     ecut=    80.00 Ry     beta= 0.30
     Davidson diagonalization with overlap
     ethr =  9.44E-06,  avg # of iterations =  1.7

     total cpu time spent up to now is      428.7 secs

     total energy              =     -80.29852661 Ry
     estimated scf accuracy    <       0.00006845 Ry

     iteration #  4     ecut=    80.00 Ry     beta= 0.30
     Davidson diagonalization with overlap
     ethr =  3.42E-07,  avg # of iterations =  2.0

     total cpu time spent up to now is      432.1 secs

     total energy              =     -80.29853475 Ry
     estimated scf accuracy    <       0.00000089 Ry

     iteration #  5     ecut=    80.00 Ry     beta= 0.30
     Davidson diagonalization with overlap
     ethr =  4.46E-09,  avg # of iterations =  2.3

     total cpu time spent up to now is      435.4 secs

     total energy              =     -80.29853492 Ry
     estimated scf accuracy    <       0.00000020 Ry

     iteration #  6     ecut=    80.00 Ry     beta= 0.30
     Davidson diagonalization with overlap
     ethr =  1.00E-09,  avg # of iterations =  2.0

     total cpu time spent up to now is      438.7 secs

     total energy              =     -80.29853495 Ry
     estimated scf accuracy    <       0.00000002 Ry

     iteration #  7     ecut=    80.00 Ry     beta= 0.30
     Davidson diagonalization with overlap
     ethr =  9.91E-11,  avg # of iterations =  2.0

     total cpu time spent up to now is      442.1 secs

     total energy              =     -80.29853496 Ry
     estimated scf accuracy    <          6.0E-09 Ry

     iteration #  8     ecut=    80.00 Ry     beta= 0.30
     Davidson diagonalization with overlap
     ethr =  3.01E-11,  avg # of iterations =  1.7

     total cpu time spent up to now is      445.2 secs

     End of self-consistent calculation

     Number of k-points >= 100: set verbosity='high' to print the bands.

     the Fermi energy is    18.8236 ev

!    total energy              =     -80.29853496 Ry
     estimated scf accuracy    <          2.7E-10 Ry
     smearing contrib. (-TS)   =       0.00008048 Ry
     internal energy E=F+TS    =     -80.29861545 Ry

     The total energy is F=E-TS. E is the sum of the following terms:
     one-electron contribution =      21.04528017 Ry
     hartree contribution      =       4.59872633 Ry
     xc contribution           =     -27.68158141 Ry
     ewald contribution        =     -78.26104054 Ry

     convergence has been achieved in   8 iterations

     Forces acting on atoms (cartesian axes, Ry/au):

     atom    1 type  1   force =     0.00000000   -0.00000000    0.00000000
     atom    2 type  2   force =    -0.01089978    0.01089978    0.01089978
     atom    3 type  2   force =     0.01089978   -0.01089978   -0.01089978
     atom    4 type  2   force =    -0.03709991    0.03709991    0.03709991
     atom    5 type  2   force =     0.03709991   -0.03709991   -0.03709991
     atom    6 type  2   force =    -0.01819779    0.01819779    0.02506816
     atom    7 type  2   force =     0.01819779   -0.01819779   -0.02506816
     atom    8 type  2   force =    -0.02506816    0.01819779    0.01819779
     atom    9 type  2   force =     0.02506816   -0.01819779   -0.01819779
     atom   10 type  2   force =    -0.01819779    0.02506816    0.01819779
     atom   11 type  2   force =     0.01819779   -0.02506816   -0.01819779

     Total force =     0.129289     Total SCF correction =     0.000008


     Computing stress (Cartesian axis) and pressure

          total   stress  (Ry/bohr**3)                   (kbar)     P=     2789.75
   0.01896430   0.00081370   0.00081370         2789.75      119.70      119.70
   0.00081370   0.01896430  -0.00081370          119.70     2789.75     -119.70
   0.00081370  -0.00081370   0.01896430          119.70     -119.70     2789.75

     Energy error            =      5.3E-02 Ry
     Gradient error          =      3.7E-02 Ry/Bohr
     Cell gradient error     =      2.1E+02 kbar

     number of scf cycles    =  12
     number of bfgs steps    =  10

     enthalpy           old  =     -76.6472298014 Ry
     enthalpy           new  =     -76.7003540380 Ry

     CASE: enthalpy          _new < enthalpy          _old

     new trust radius        =       0.2165346919 bohr
     new conv_thr            =       0.0000000010 Ry

     new unit-cell volume =    171.93256 a.u.^3 (    25.47778 Ang^3 )
     density =      6.36769 g/cm^3

CELL_PARAMETERS (alat=  9.00000000)
  -0.509618590   0.037106842   0.509618590
  -0.037106842   0.509618590   0.509618590
  -0.509618590   0.509618590   0.037106842

ATOMIC_POSITIONS (crystal)
Sr              -0.0000000000       -0.0000000000        0.0000000000
H                0.2457401348        0.2457401348        0.2457401348
H                0.7542598652        0.7542598652        0.7542598652
H                0.3564771395        0.3564771395        0.3564771395
H                0.6435228605        0.6435228605        0.6435228605
H                0.3563205250        0.3563205250        0.8451121208
H                0.6436794750        0.6436794750        0.1548878792
H                0.3563205250        0.8451121208        0.3563205250
H                0.6436794750        0.1548878792        0.6436794750
H                0.8451121208        0.3563205250        0.3563205250
H                0.1548878792        0.6436794750        0.6436794750



     Writing config-only to output data dir ./out/srh10.save/ :
     XML data file
     NEW-OLD atomic charge density approx. for the potential
     New effective cutoffs (rho, wfc):  713.69   89.58

     total cpu time spent up to now is      447.0 secs

     per-process dynamical memory:    50.9 Mb

     Self-consistent Calculation

     iteration #  1     ecut=    80.00 Ry     beta= 0.30
     Davidson diagonalization with overlap
     ethr =  1.00E-06,  avg # of iterations =  9.4

     total cpu time spent up to now is      455.4 secs

     total energy              =     -80.26647126 Ry
     estimated scf accuracy    <       0.00909324 Ry

     iteration #  2     ecut=    80.00 Ry     beta= 0.30
     Davidson diagonalization with overlap
     ethr =  4.55E-05,  avg # of iterations =  1.0

     total cpu time spent up to now is      458.3 secs

     total energy              =     -80.26573152 Ry
     estimated scf accuracy    <       0.00353746 Ry

     iteration #  3     ecut=    80.00 Ry     beta= 0.30
     Davidson diagonalization with overlap
     ethr =  1.77E-05,  avg # of iterations =  1.9

     total cpu time spent up to now is      461.4 secs

     total energy              =     -80.26596094 Ry
     estimated scf accuracy    <       0.00018459 Ry

     iteration #  4     ecut=    80.00 Ry     beta= 0.30
     Davidson diagonalization with overlap
     ethr =  9.23E-07,  avg # of iterations =  2.0

     total cpu time spent up to now is      464.6 secs

     total energy              =     -80.26597894 Ry
     estimated scf accuracy    <       0.00000249 Ry

     iteration #  5     ecut=    80.00 Ry     beta= 0.30
     Davidson diagonalization with overlap
     ethr =  1.24E-08,  avg # of iterations =  2.1

     total cpu time spent up to now is      468.1 secs

     total energy              =     -80.26597958 Ry
     estimated scf accuracy    <       0.00000040 Ry

     iteration #  6     ecut=    80.00 Ry     beta= 0.30
     Davidson diagonalization with overlap
     ethr =  1.99E-09,  avg # of iterations =  2.0

     total cpu time spent up to now is      471.5 secs

     total energy              =     -80.26597966 Ry
     estimated scf accuracy    <       0.00000004 Ry

     iteration #  7     ecut=    80.00 Ry     beta= 0.30
     Davidson diagonalization with overlap
     ethr =  2.16E-10,  avg # of iterations =  1.5

     total cpu time spent up to now is      474.4 secs

     total energy              =     -80.26597966 Ry
     estimated scf accuracy    <          2.6E-09 Ry

     iteration #  8     ecut=    80.00 Ry     beta= 0.30
     Davidson diagonalization with overlap
     ethr =  1.28E-11,  avg # of iterations =  2.2

     total cpu time spent up to now is      478.0 secs

     End of self-consistent calculation

     Number of k-points >= 100: set verbosity='high' to print the bands.

     the Fermi energy is    19.0266 ev

!    total energy              =     -80.26597967 Ry
     estimated scf accuracy    <          5.0E-10 Ry
     smearing contrib. (-TS)   =       0.00000639 Ry
     internal energy E=F+TS    =     -80.26598605 Ry

     The total energy is F=E-TS. E is the sum of the following terms:
     one-electron contribution =      22.35299468 Ry
     hartree contribution      =       4.32807713 Ry
     xc contribution           =     -27.72573000 Ry
     ewald contribution        =     -79.22132786 Ry

     convergence has been achieved in   8 iterations

     Forces acting on atoms (cartesian axes, Ry/au):

     atom    1 type  1   force =     0.00000000    0.00000000    0.00000000
     atom    2 type  2   force =    -0.01502060    0.01502060    0.01502060
     atom    3 type  2   force =     0.01502060   -0.01502060   -0.01502060
     atom    4 type  2   force =    -0.01931976    0.01931976    0.01931976
     atom    5 type  2   force =     0.01931976   -0.01931976   -0.01931976
     atom    6 type  2   force =    -0.01603366    0.01603366    0.02057588
     atom    7 type  2   force =     0.01603366   -0.01603366   -0.02057588
     atom    8 type  2   force =    -0.02057588    0.01603366    0.01603366
     atom    9 type  2   force =     0.02057588   -0.01603366   -0.01603366
     atom   10 type  2   force =    -0.01603366    0.02057588    0.01603366
     atom   11 type  2   force =     0.01603366   -0.02057588   -0.01603366

     Total force =     0.096012     Total SCF correction =     0.000011


     Computing stress (Cartesian axis) and pressure

          total   stress  (Ry/bohr**3)                   (kbar)     P=     2922.36
   0.01986580   0.00034172   0.00034172         2922.36       50.27       50.27
   0.00034172   0.01986580  -0.00034172           50.27     2922.36      -50.27
   0.00034172  -0.00034172   0.01986580           50.27      -50.27     2922.36

     Energy error            =      5.9E-02 Ry
     Gradient error          =      2.1E-02 Ry/Bohr
     Cell gradient error     =      7.8E+01 kbar

     number of scf cycles    =  13
     number of bfgs steps    =  11

     enthalpy           old  =     -76.7003540380 Ry
     enthalpy           new  =     -76.7596583032 Ry

     CASE: enthalpy          _new < enthalpy          _old

     new trust radius        =       0.3119614734 bohr
     new conv_thr            =       0.0000000010 Ry

     new unit-cell volume =    165.45862 a.u.^3 (    24.51844 Ang^3 )
     density =      6.61684 g/cm^3

CELL_PARAMETERS (alat=  9.00000000)
  -0.494817283   0.020896005   0.494817283
  -0.020896005   0.494817283   0.494817283
  -0.494817283   0.494817283   0.020896005

ATOMIC_POSITIONS (crystal)
Sr              -0.0000000000       -0.0000000000        0.0000000000
H                0.2494672013        0.2494672013        0.2494672013
H                0.7505327987        0.7505327987        0.7505327987
H                0.3754220452        0.3754220452        0.3754220452
H                0.6245779548        0.6245779548        0.6245779548
H                0.3716480365        0.3716480365        0.8552036032
H                0.6283519635        0.6283519635        0.1447963968
H                0.3716480365        0.8552036032        0.3716480365
H                0.6283519635        0.1447963968        0.6283519635
H                0.8552036032        0.3716480365        0.3716480365
H                0.1447963968        0.6283519635        0.6283519635



     Writing config-only to output data dir ./out/srh10.save/ :
     XML data file
     NEW-OLD atomic charge density approx. for the potential
     New effective cutoffs (rho, wfc):  710.37   89.05

     total cpu time spent up to now is      479.8 secs

     per-process dynamical memory:    50.9 Mb

     Self-consistent Calculation

     iteration #  1     ecut=    80.00 Ry     beta= 0.30
     Davidson diagonalization with overlap
     c_bands:  1 eigenvalues not converged
     c_bands:  1 eigenvalues not converged
     c_bands:  1 eigenvalues not converged
     ethr =  1.00E-06,  avg # of iterations =  9.9

     total cpu time spent up to now is      488.8 secs

     total energy              =     -80.17056656 Ry
     estimated scf accuracy    <       0.02071102 Ry

     iteration #  2     ecut=    80.00 Ry     beta= 0.30
     Davidson diagonalization with overlap
     ethr =  1.04E-04,  avg # of iterations =  1.0

     total cpu time spent up to now is      491.7 secs

     total energy              =     -80.16910390 Ry
     estimated scf accuracy    <       0.00921323 Ry

     iteration #  3     ecut=    80.00 Ry     beta= 0.30
     Davidson diagonalization with overlap
     ethr =  4.61E-05,  avg # of iterations =  1.0

     total cpu time spent up to now is      494.6 secs

     total energy              =     -80.16935000 Ry
     estimated scf accuracy    <       0.00017422 Ry

     iteration #  4     ecut=    80.00 Ry     beta= 0.30
     Davidson diagonalization with overlap
     ethr =  8.71E-07,  avg # of iterations =  2.1

     total cpu time spent up to now is      498.0 secs

     total energy              =     -80.16937628 Ry
     estimated scf accuracy    <       0.00000138 Ry

     iteration #  5     ecut=    80.00 Ry     beta= 0.30
     Davidson diagonalization with overlap
     ethr =  6.88E-09,  avg # of iterations =  2.3

     total cpu time spent up to now is      501.4 secs

     total energy              =     -80.16937667 Ry
     estimated scf accuracy    <       0.00000040 Ry

     iteration #  6     ecut=    80.00 Ry     beta= 0.30
     Davidson diagonalization with overlap
     ethr =  1.99E-09,  avg # of iterations =  2.0

     total cpu time spent up to now is      504.7 secs

     total energy              =     -80.16937672 Ry
     estimated scf accuracy    <       0.00000003 Ry

     iteration #  7     ecut=    80.00 Ry     beta= 0.30
     Davidson diagonalization with overlap
     ethr =  1.73E-10,  avg # of iterations =  2.0

     total cpu time spent up to now is      508.4 secs

     total energy              =     -80.16937672 Ry
     estimated scf accuracy    <       0.00000001 Ry

     iteration #  8     ecut=    80.00 Ry     beta= 0.30
     Davidson diagonalization with overlap
     ethr =  6.15E-11,  avg # of iterations =  2.0

     total cpu time spent up to now is      511.8 secs

     End of self-consistent calculation

     Number of k-points >= 100: set verbosity='high' to print the bands.

     the Fermi energy is    19.5061 ev

!    total energy              =     -80.16937673 Ry
     estimated scf accuracy    <          2.0E-10 Ry
     smearing contrib. (-TS)   =      -0.00017519 Ry
     internal energy E=F+TS    =     -80.16920153 Ry

     The total energy is F=E-TS. E is the sum of the following terms:
     one-electron contribution =      24.12927035 Ry
     hartree contribution      =       4.02690808 Ry
     xc contribution           =     -27.81854952 Ry
     ewald contribution        =     -80.50683044 Ry

     convergence has been achieved in   8 iterations

     Forces acting on atoms (cartesian axes, Ry/au):

     atom    1 type  1   force =     0.00000000    0.00000000    0.00000000
     atom    2 type  2   force =    -0.00720543    0.00720543    0.00720543
     atom    3 type  2   force =     0.00720543   -0.00720543   -0.00720543
     atom    4 type  2   force =     0.00051617   -0.00051617   -0.00051617
     atom    5 type  2   force =    -0.00051617    0.00051617    0.00051617
     atom    6 type  2   force =     0.00273823   -0.00273823    0.00673746
     atom    7 type  2   force =    -0.00273823    0.00273823   -0.00673746
     atom    8 type  2   force =    -0.00673746   -0.00273823   -0.00273823
     atom    9 type  2   force =     0.00673746    0.00273823    0.00273823
     atom   10 type  2   force =     0.00273823    0.00673746   -0.00273823
     atom   11 type  2   force =    -0.00273823   -0.00673746    0.00273823

     Total force =     0.025989     Total SCF correction =     0.000007


     Computing stress (Cartesian axis) and pressure

          total   stress  (Ry/bohr**3)                   (kbar)     P=     3186.56
   0.02166177   0.00031321   0.00031321         3186.56       46.07       46.07
   0.00031321   0.02166177  -0.00031321           46.07     3186.56      -46.07
   0.00031321  -0.00031321   0.02166177           46.07      -46.07     3186.56

     Energy error            =      3.5E-02 Ry
     Gradient error          =      7.2E-03 Ry/Bohr
     Cell gradient error     =      1.9E+02 kbar

     number of scf cycles    =  14
     number of bfgs steps    =  12

     enthalpy           old  =     -76.7596583032 Ry
     enthalpy           new  =     -76.7950821952 Ry

     CASE: enthalpy          _new < enthalpy          _old

     new trust radius        =       0.0439108295 bohr
     new conv_thr            =       0.0000000007 Ry

     new unit-cell volume =    167.71162 a.u.^3 (    24.85230 Ang^3 )
     density =      6.52795 g/cm^3

CELL_PARAMETERS (alat=  9.00000000)
  -0.492352882   0.011892252   0.492352882
  -0.011892252   0.492352882   0.492352882
  -0.492352882   0.492352882   0.011892252

ATOMIC_POSITIONS (crystal)
Sr              -0.0000000000       -0.0000000000        0.0000000000
H                0.2502105631        0.2502105631        0.2502105631
H                0.7497894369        0.7497894369        0.7497894369
H                0.3782095720        0.3782095720        0.3782095720
H                0.6217904280        0.6217904280        0.6217904280
H                0.3734592700        0.3734592700        0.8518770407
H                0.6265407300        0.6265407300        0.1481229593
H                0.3734592700        0.8518770407        0.3734592700
H                0.6265407300        0.1481229593        0.6265407300
H                0.8518770407        0.3734592700        0.3734592700
H                0.1481229593        0.6265407300        0.6265407300



     Writing config-only to output data dir ./out/srh10.save/ :
     XML data file
     NEW-OLD atomic charge density approx. for the potential
     New effective cutoffs (rho, wfc):  691.73   86.64

     total cpu time spent up to now is      513.7 secs

     per-process dynamical memory:    50.9 Mb

     Self-consistent Calculation

     iteration #  1     ecut=    80.00 Ry     beta= 0.30
     Davidson diagonalization with overlap
     ethr =  1.00E-06,  avg # of iterations =  7.4

     total cpu time spent up to now is      520.7 secs

     total energy              =     -80.21918934 Ry
     estimated scf accuracy    <       0.00106764 Ry

     iteration #  2     ecut=    80.00 Ry     beta= 0.30
     Davidson diagonalization with overlap
     ethr =  5.34E-06,  avg # of iterations =  1.0

     total cpu time spent up to now is      523.6 secs

     total energy              =     -80.21910509 Ry
     estimated scf accuracy    <       0.00029390 Ry

     iteration #  3     ecut=    80.00 Ry     beta= 0.30
     Davidson diagonalization with overlap
     ethr =  1.47E-06,  avg # of iterations =  2.0

     total cpu time spent up to now is      527.1 secs

     total energy              =     -80.21915495 Ry
     estimated scf accuracy    <       0.00001302 Ry

     iteration #  4     ecut=    80.00 Ry     beta= 0.30
     Davidson diagonalization with overlap
     ethr =  6.51E-08,  avg # of iterations =  1.6

     total cpu time spent up to now is      530.1 secs

     total energy              =     -80.21915610 Ry
     estimated scf accuracy    <       0.00000056 Ry

     iteration #  5     ecut=    80.00 Ry     beta= 0.30
     Davidson diagonalization with overlap
     ethr =  2.82E-09,  avg # of iterations =  2.0

     total cpu time spent up to now is      533.3 secs

     total energy              =     -80.21915616 Ry
     estimated scf accuracy    <       0.00000012 Ry

     iteration #  6     ecut=    80.00 Ry     beta= 0.30
     Davidson diagonalization with overlap
     ethr =  5.81E-10,  avg # of iterations =  2.0

     total cpu time spent up to now is      536.9 secs

     total energy              =     -80.21915619 Ry
     estimated scf accuracy    <          6.2E-09 Ry

     iteration #  7     ecut=    80.00 Ry     beta= 0.30
     Davidson diagonalization with overlap
     ethr =  3.08E-11,  avg # of iterations =  1.5

     total cpu time spent up to now is      539.9 secs

     total energy              =     -80.21915620 Ry
     estimated scf accuracy    <          1.7E-09 Ry

     iteration #  8     ecut=    80.00 Ry     beta= 0.30
     Davidson diagonalization with overlap
     ethr =  8.32E-12,  avg # of iterations =  2.0

     total cpu time spent up to now is      543.2 secs

     End of self-consistent calculation

     Number of k-points >= 100: set verbosity='high' to print the bands.

     the Fermi energy is    19.2287 ev

!    total energy              =     -80.21915620 Ry
     estimated scf accuracy    <          6.6E-11 Ry
     smearing contrib. (-TS)   =      -0.00015581 Ry
     internal energy E=F+TS    =     -80.21900039 Ry

     The total energy is F=E-TS. E is the sum of the following terms:
     one-electron contribution =      23.59569526 Ry
     hartree contribution      =       4.09832356 Ry
     xc contribution           =     -27.76938182 Ry
     ewald contribution        =     -80.14363739 Ry

     convergence has been achieved in   8 iterations

     Forces acting on atoms (cartesian axes, Ry/au):

     atom    1 type  1   force =     0.00000000   -0.00000000    0.00000000
     atom    2 type  2   force =    -0.00739091    0.00739091    0.00739091
     atom    3 type  2   force =     0.00739091   -0.00739091   -0.00739091
     atom    4 type  2   force =     0.00588060   -0.00588060   -0.00588060
     atom    5 type  2   force =    -0.00588060    0.00588060    0.00588060
     atom    6 type  2   force =    -0.00566287    0.00566287    0.00564188
     atom    7 type  2   force =     0.00566287   -0.00566287   -0.00564188
     atom    8 type  2   force =    -0.00564188    0.00566287    0.00566287
     atom    9 type  2   force =     0.00564188   -0.00566287   -0.00566287
     atom   10 type  2   force =    -0.00566287    0.00564188    0.00566287
     atom   11 type  2   force =     0.00566287   -0.00564188   -0.00566287

     Total force =     0.033332     Total SCF correction =     0.000002


     Computing stress (Cartesian axis) and pressure

          total   stress  (Ry/bohr**3)                   (kbar)     P=     3063.17
   0.02082298   0.00002574   0.00002574         3063.17        3.79        3.79
   0.00002574   0.02082298  -0.00002574            3.79     3063.17       -3.79
   0.00002574  -0.00002574   0.02082298            3.79       -3.79     3063.17

     Energy error            =      3.8E-03 Ry
     Gradient error          =      7.4E-03 Ry/Bohr
     Cell gradient error     =      6.3E+01 kbar

     number of scf cycles    =  15
     number of bfgs steps    =  13

     enthalpy           old  =     -76.7950821952 Ry
     enthalpy           new  =     -76.7989148874 Ry

     CASE: enthalpy          _new < enthalpy          _old

     new trust radius        =       0.0311903099 bohr
     new conv_thr            =       0.0000000007 Ry

     new unit-cell volume =    169.04531 a.u.^3 (    25.04993 Ang^3 )
     density =      6.47645 g/cm^3

CELL_PARAMETERS (alat=  9.00000000)
  -0.492131552   0.008940837   0.492131552
  -0.008940837   0.492131552   0.492131552
  -0.492131552   0.492131552   0.008940837

ATOMIC_POSITIONS (crystal)
Sr              -0.0000000000        0.0000000000        0.0000000000
H                0.2510530653        0.2510530653        0.2510530653
H                0.7489469347        0.7489469347        0.7489469347
H                0.3798897617        0.3798897617        0.3798897617
H                0.6201102383        0.6201102383        0.6201102383
H                0.3752505848        0.3752505848        0.8543019676
H                0.6247494152        0.6247494152        0.1456980324
H                0.3752505848        0.8543019676        0.3752505848
H                0.6247494152        0.1456980324        0.6247494152
H                0.8543019676        0.3752505848        0.3752505848
H                0.1456980324        0.6247494152        0.6247494152



     Writing config-only to output data dir ./out/srh10.save/ :
     XML data file
     NEW-OLD atomic charge density approx. for the potential
     New effective cutoffs (rho, wfc):  684.12   85.66

     total cpu time spent up to now is      545.0 secs

     per-process dynamical memory:    50.9 Mb

     Self-consistent Calculation

     iteration #  1     ecut=    80.00 Ry     beta= 0.30
     Davidson diagonalization with overlap
     ethr =  1.00E-06,  avg # of iterations =  6.2

     total cpu time spent up to now is      551.3 secs

     total energy              =     -80.24789912 Ry
     estimated scf accuracy    <       0.00031396 Ry

     iteration #  2     ecut=    80.00 Ry     beta= 0.30
     Davidson diagonalization with overlap
     ethr =  1.57E-06,  avg # of iterations =  1.0

     total cpu time spent up to now is      554.2 secs

     total energy              =     -80.24788455 Ry
     estimated scf accuracy    <       0.00014325 Ry

     iteration #  3     ecut=    80.00 Ry     beta= 0.30
     Davidson diagonalization with overlap
     ethr =  7.16E-07,  avg # of iterations =  1.0

     total cpu time spent up to now is      557.1 secs

     total energy              =     -80.24788781 Ry
     estimated scf accuracy    <       0.00000232 Ry

     iteration #  4     ecut=    80.00 Ry     beta= 0.30
     Davidson diagonalization with overlap
     ethr =  1.16E-08,  avg # of iterations =  2.0

     total cpu time spent up to now is      560.7 secs

     total energy              =     -80.24788831 Ry
     estimated scf accuracy    <       0.00000003 Ry

     iteration #  5     ecut=    80.00 Ry     beta= 0.30
     Davidson diagonalization with overlap
     ethr =  1.69E-10,  avg # of iterations =  2.3

     total cpu time spent up to now is      563.9 secs

     total energy              =     -80.24788831 Ry
     estimated scf accuracy    <       0.00000001 Ry

     iteration #  6     ecut=    80.00 Ry     beta= 0.30
     Davidson diagonalization with overlap
     ethr =  5.86E-11,  avg # of iterations =  1.5

     total cpu time spent up to now is      567.0 secs

     End of self-consistent calculation

     Number of k-points >= 100: set verbosity='high' to print the bands.

     the Fermi energy is    19.0408 ev

!    total energy              =     -80.24788832 Ry
     estimated scf accuracy    <          2.7E-10 Ry
     smearing contrib. (-TS)   =      -0.00021803 Ry
     internal energy E=F+TS    =     -80.24767029 Ry

     The total energy is F=E-TS. E is the sum of the following terms:
     one-electron contribution =      23.29294518 Ry
     hartree contribution      =       4.13855221 Ry
     xc contribution           =     -27.73654428 Ry
     ewald contribution        =     -79.94262341 Ry

     convergence has been achieved in   6 iterations

     Forces acting on atoms (cartesian axes, Ry/au):

     atom    1 type  1   force =     0.00000000   -0.00000000    0.00000000
     atom    2 type  2   force =    -0.00482968    0.00482968    0.00482968
     atom    3 type  2   force =     0.00482968   -0.00482968   -0.00482968
     atom    4 type  2   force =     0.00485062   -0.00485062   -0.00485062
     atom    5 type  2   force =    -0.00485062    0.00485062    0.00485062
     atom    6 type  2   force =    -0.00253731    0.00253731    0.00446731
     atom    7 type  2   force =     0.00253731   -0.00253731   -0.00446731
     atom    8 type  2   force =    -0.00446731    0.00253731    0.00253731
     atom    9 type  2   force =     0.00446731   -0.00253731   -0.00253731
     atom   10 type  2   force =    -0.00253731    0.00446731    0.00253731
     atom   11 type  2   force =     0.00253731   -0.00446731   -0.00253731

     Total force =     0.021866     Total SCF correction =     0.000010


     Computing stress (Cartesian axis) and pressure

          total   stress  (Ry/bohr**3)                   (kbar)     P=     2988.57
   0.02031588   0.00004159   0.00004159         2988.57        6.12        6.12
   0.00004159   0.02031588  -0.00004159            6.12     2988.57       -6.12
   0.00004159  -0.00004159   0.02031588            6.12       -6.12     2988.57

     Energy error            =      1.5E-03 Ry
     Gradient error          =      4.9E-03 Ry/Bohr
     Cell gradient error     =      1.1E+01 kbar

     number of scf cycles    =  16
     number of bfgs steps    =  14

     enthalpy           old  =     -76.7989148874 Ry
     enthalpy           new  =     -76.8004483536 Ry

     CASE: enthalpy          _new < enthalpy          _old

     new trust radius        =       0.0320741547 bohr
     new conv_thr            =       0.0000000005 Ry

     new unit-cell volume =    169.05352 a.u.^3 (    25.05115 Ang^3 )
     density =      6.47614 g/cm^3

CELL_PARAMETERS (alat=  9.00000000)
  -0.490171550   0.005060338   0.490171550
  -0.005060338   0.490171550   0.490171550
  -0.490171550   0.490171550   0.005060338

ATOMIC_POSITIONS (crystal)
Sr              -0.0000000000        0.0000000000        0.0000000000
H                0.2521744596        0.2521744596        0.2521744596
H                0.7478255404        0.7478255404        0.7478255404
H                0.3815084185        0.3815084185        0.3815084185
H                0.6184915815        0.6184915815        0.6184915815
H                0.3776241219        0.3776241219        0.8557361063
H                0.6223758781        0.6223758781        0.1442638937
H                0.3776241219        0.8557361063        0.3776241219
H                0.6223758781        0.1442638937        0.6223758781
H                0.8557361063        0.3776241219        0.3776241219
H                0.1442638937        0.6223758781        0.6223758781



     Writing config-only to output data dir ./out/srh10.save/ :
     XML data file
     NEW-OLD atomic charge density approx. for the potential
     New effective cutoffs (rho, wfc):  678.97   84.99

     total cpu time spent up to now is      568.8 secs

     per-process dynamical memory:    50.9 Mb

     Self-consistent Calculation

     iteration #  1     ecut=    80.00 Ry     beta= 0.30
     Davidson diagonalization with overlap
     ethr =  1.00E-06,  avg # of iterations =  6.4

     total cpu time spent up to now is      575.1 secs

     total energy              =     -80.24874921 Ry
     estimated scf accuracy    <       0.00027070 Ry

     iteration #  2     ecut=    80.00 Ry     beta= 0.30
     Davidson diagonalization with overlap
     ethr =  1.35E-06,  avg # of iterations =  1.0

     total cpu time spent up to now is      578.0 secs

     total energy              =     -80.24874317 Ry
     estimated scf accuracy    <       0.00012793 Ry

     iteration #  3     ecut=    80.00 Ry     beta= 0.30
     Davidson diagonalization with overlap
     ethr =  6.40E-07,  avg # of iterations =  1.0

     total cpu time spent up to now is      580.9 secs

     total energy              =     -80.24874525 Ry
     estimated scf accuracy    <       0.00000039 Ry

     iteration #  4     ecut=    80.00 Ry     beta= 0.30
     Davidson diagonalization with overlap
     ethr =  1.94E-09,  avg # of iterations =  2.5

     total cpu time spent up to now is      584.4 secs

     total energy              =     -80.24874534 Ry
     estimated scf accuracy    <       0.00000003 Ry

     iteration #  5     ecut=    80.00 Ry     beta= 0.30
     Davidson diagonalization with overlap
     ethr =  1.29E-10,  avg # of iterations =  1.8

     total cpu time spent up to now is      587.5 secs

     total energy              =     -80.24874535 Ry
     estimated scf accuracy    <          2.9E-09 Ry

     iteration #  6     ecut=    80.00 Ry     beta= 0.30
     Davidson diagonalization with overlap
     ethr =  1.43E-11,  avg # of iterations =  2.0

     total cpu time spent up to now is      590.8 secs

     End of self-consistent calculation

     Number of k-points >= 100: set verbosity='high' to print the bands.

     the Fermi energy is    19.0065 ev

!    total energy              =     -80.24874535 Ry
     estimated scf accuracy    <          1.8E-10 Ry
     smearing contrib. (-TS)   =      -0.00019583 Ry
     internal energy E=F+TS    =     -80.24854953 Ry

     The total energy is F=E-TS. E is the sum of the following terms:
     one-electron contribution =      23.29477986 Ry
     hartree contribution      =       4.13775693 Ry
     xc contribution           =     -27.73500580 Ry
     ewald contribution        =     -79.94608052 Ry

     convergence has been achieved in   6 iterations

     Forces acting on atoms (cartesian axes, Ry/au):

     atom    1 type  1   force =    -0.00000000   -0.00000000   -0.00000000
     atom    2 type  2   force =    -0.00182028    0.00182028    0.00182028
     atom    3 type  2   force =     0.00182028   -0.00182028   -0.00182028
     atom    4 type  2   force =     0.00432785   -0.00432785   -0.00432785
     atom    5 type  2   force =    -0.00432785    0.00432785    0.00432785
     atom    6 type  2   force =    -0.00109431    0.00109431    0.00159575
     atom    7 type  2   force =     0.00109431   -0.00109431   -0.00159575
     atom    8 type  2   force =    -0.00159575    0.00109431    0.00109431
     atom    9 type  2   force =     0.00159575   -0.00109431   -0.00109431
     atom   10 type  2   force =    -0.00109431    0.00159575    0.00109431
     atom   11 type  2   force =     0.00109431   -0.00159575   -0.00109431

     Total force =     0.012724     Total SCF correction =     0.000003


     Computing stress (Cartesian axis) and pressure

          total   stress  (Ry/bohr**3)                   (kbar)     P=     2985.32
   0.02029379   0.00001887   0.00001887         2985.32        2.78        2.78
   0.00001887   0.02029379  -0.00001887            2.78     2985.32       -2.78
   0.00001887  -0.00001887   0.02029379            2.78       -2.78     2985.32

     Energy error            =      6.9E-04 Ry
     Gradient error          =      4.3E-03 Ry/Bohr
     Cell gradient error     =      1.5E+01 kbar

     number of scf cycles    =  17
     number of bfgs steps    =  15

     enthalpy           old  =     -76.8004483536 Ry
     enthalpy           new  =     -76.8011378827 Ry

     CASE: enthalpy          _new < enthalpy          _old

     new trust radius        =       0.0079303903 bohr
     new conv_thr            =       0.0000000004 Ry

     new unit-cell volume =    168.85188 a.u.^3 (    25.02127 Ang^3 )
     density =      6.48387 g/cm^3

CELL_PARAMETERS (alat=  9.00000000)
  -0.489675727   0.004462406   0.489675727
  -0.004462406   0.489675727   0.489675727
  -0.489675727   0.489675727   0.004462406

ATOMIC_POSITIONS (crystal)
Sr              -0.0000000000        0.0000000000        0.0000000000
H                0.2525238149        0.2525238149        0.2525238149
H                0.7474761851        0.7474761851        0.7474761851
H                0.3810270689        0.3810270689        0.3810270689
H                0.6189729311        0.6189729311        0.6189729311
H                0.3780702578        0.3780702578        0.8563861277
H                0.6219297422        0.6219297422        0.1436138723
H                0.3780702578        0.8563861277        0.3780702578
H                0.6219297422        0.1436138723        0.6219297422
H                0.8563861277        0.3780702578        0.3780702578
H                0.1436138723        0.6219297422        0.6219297422



     Writing config-only to output data dir ./out/srh10.save/ :
     XML data file
     NEW-OLD atomic charge density approx. for the potential
     New effective cutoffs (rho, wfc):  678.72   84.95

     total cpu time spent up to now is      592.7 secs

     per-process dynamical memory:    50.9 Mb

     Self-consistent Calculation

     iteration #  1     ecut=    80.00 Ry     beta= 0.30
     Davidson diagonalization with overlap
     ethr =  1.00E-06,  avg # of iterations =  3.2

     total cpu time spent up to now is      597.1 secs

     total energy              =     -80.24482523 Ry
     estimated scf accuracy    <       0.00002626 Ry

     iteration #  2     ecut=    80.00 Ry     beta= 0.30
     Davidson diagonalization with overlap
     ethr =  1.31E-07,  avg # of iterations =  1.2

     total cpu time spent up to now is      600.1 secs

     total energy              =     -80.24482400 Ry
     estimated scf accuracy    <       0.00000889 Ry

     iteration #  3     ecut=    80.00 Ry     beta= 0.30
     Davidson diagonalization with overlap
     ethr =  4.45E-08,  avg # of iterations =  2.0

     total cpu time spent up to now is      603.4 secs

     total energy              =     -80.24482523 Ry
     estimated scf accuracy    <       0.00000057 Ry

     iteration #  4     ecut=    80.00 Ry     beta= 0.30
     Davidson diagonalization with overlap
     ethr =  2.86E-09,  avg # of iterations =  1.9

     total cpu time spent up to now is      606.6 secs

     total energy              =     -80.24482528 Ry
     estimated scf accuracy    <       0.00000003 Ry

     iteration #  5     ecut=    80.00 Ry     beta= 0.30
     Davidson diagonalization with overlap
     ethr =  1.73E-10,  avg # of iterations =  2.0

     total cpu time spent up to now is      610.0 secs

     total energy              =     -80.24482528 Ry
     estimated scf accuracy    <          2.9E-09 Ry

     iteration #  6     ecut=    80.00 Ry     beta= 0.30
     Davidson diagonalization with overlap
     ethr =  1.47E-11,  avg # of iterations =  2.1

     total cpu time spent up to now is      613.7 secs

     End of self-consistent calculation

     Number of k-points >= 100: set verbosity='high' to print the bands.

     the Fermi energy is    19.0242 ev

!    total energy              =     -80.24482528 Ry
     estimated scf accuracy    <          2.4E-10 Ry
     smearing contrib. (-TS)   =      -0.00020978 Ry
     internal energy E=F+TS    =     -80.24461550 Ry

     The total energy is F=E-TS. E is the sum of the following terms:
     one-electron contribution =      23.34101763 Ry
     hartree contribution      =       4.13189014 Ry
     xc contribution           =     -27.73879133 Ry
     ewald contribution        =     -79.97873195 Ry

     convergence has been achieved in   6 iterations

     Forces acting on atoms (cartesian axes, Ry/au):

     atom    1 type  1   force =     0.00000000    0.00000000    0.00000000
     atom    2 type  2   force =    -0.00092665    0.00092665    0.00092665
     atom    3 type  2   force =     0.00092665   -0.00092665   -0.00092665
     atom    4 type  2   force =     0.00251419   -0.00251419   -0.00251419
     atom    5 type  2   force =    -0.00251419    0.00251419    0.00251419
     atom    6 type  2   force =     0.00051202   -0.00051202    0.00135463
     atom    7 type  2   force =    -0.00051202    0.00051202   -0.00135463
     atom    8 type  2   force =    -0.00135463   -0.00051202   -0.00051202
     atom    9 type  2   force =     0.00135463    0.00051202    0.00051202
     atom   10 type  2   force =     0.00051202    0.00135463   -0.00051202
     atom   11 type  2   force =    -0.00051202   -0.00135463    0.00051202

     Total force =     0.007565     Total SCF correction =     0.000006


     Computing stress (Cartesian axis) and pressure

          total   stress  (Ry/bohr**3)                   (kbar)     P=     2995.38
   0.02036217   0.00002564   0.00002564         2995.38        3.77        3.77
   0.00002564   0.02036217  -0.00002564            3.77     2995.38       -3.77
   0.00002564  -0.00002564   0.02036217            3.77       -3.77     2995.38

     Energy error            =      1.9E-04 Ry
     Gradient error          =      2.5E-03 Ry/Bohr
     Cell gradient error     =      4.6E+00 kbar

     number of scf cycles    =  18
     number of bfgs steps    =  16

     enthalpy           old  =     -76.8011378827 Ry
     enthalpy           new  =     -76.8013300707 Ry

     CASE: enthalpy          _new < enthalpy          _old

     new trust radius        =       0.0140508663 bohr
     new conv_thr            =       0.0000000003 Ry

     new unit-cell volume =    168.65437 a.u.^3 (    24.99200 Ang^3 )
     density =      6.49146 g/cm^3

CELL_PARAMETERS (alat=  9.00000000)
  -0.489151734   0.003800256   0.489151734
  -0.003800256   0.489151734   0.489151734
  -0.489151734   0.489151734   0.003800256

ATOMIC_POSITIONS (crystal)
Sr              -0.0000000000        0.0000000000        0.0000000000
H                0.2528227932        0.2528227932        0.2528227932
H                0.7471772068        0.7471772068        0.7471772068
H                0.3801108757        0.3801108757        0.3801108757
H                0.6198891243        0.6198891243        0.6198891243
H                0.3782650090        0.3782650090        0.8560936336
H                0.6217349910        0.6217349910        0.1439063664
H                0.3782650090        0.8560936336        0.3782650090
H                0.6217349910        0.1439063664        0.6217349910
H                0.8560936336        0.3782650090        0.3782650090
H                0.1439063664        0.6217349910        0.6217349910



     Writing config-only to output data dir ./out/srh10.save/ :
     XML data file
     NEW-OLD atomic charge density approx. for the potential
     New effective cutoffs (rho, wfc):  678.38   84.90

     total cpu time spent up to now is      615.5 secs

     per-process dynamical memory:    50.9 Mb

     Self-consistent Calculation

     iteration #  1     ecut=    80.00 Ry     beta= 0.30
     Davidson diagonalization with overlap
     ethr =  1.00E-06,  avg # of iterations =  3.2

     total cpu time spent up to now is      620.0 secs

     total energy              =     -80.24091879 Ry
     estimated scf accuracy    <       0.00002518 Ry

     iteration #  2     ecut=    80.00 Ry     beta= 0.30
     Davidson diagonalization with overlap
     ethr =  1.26E-07,  avg # of iterations =  1.1

     total cpu time spent up to now is      622.9 secs

     total energy              =     -80.24091735 Ry
     estimated scf accuracy    <       0.00001074 Ry

     iteration #  3     ecut=    80.00 Ry     beta= 0.30
     Davidson diagonalization with overlap
     ethr =  5.37E-08,  avg # of iterations =  1.2

     total cpu time spent up to now is      625.9 secs

     total energy              =     -80.24091785 Ry
     estimated scf accuracy    <       0.00000041 Ry

     iteration #  4     ecut=    80.00 Ry     beta= 0.30
     Davidson diagonalization with overlap
     ethr =  2.06E-09,  avg # of iterations =  2.0

     total cpu time spent up to now is      629.1 secs

     total energy              =     -80.24091789 Ry
     estimated scf accuracy    <          7.9E-09 Ry

     iteration #  5     ecut=    80.00 Ry     beta= 0.30
     Davidson diagonalization with overlap
     ethr =  3.97E-11,  avg # of iterations =  2.2

     total cpu time spent up to now is      632.4 secs

     total energy              =     -80.24091789 Ry
     estimated scf accuracy    <          8.4E-10 Ry

     iteration #  6     ecut=    80.00 Ry     beta= 0.30
     Davidson diagonalization with overlap
     ethr =  4.18E-12,  avg # of iterations =  2.0

     total cpu time spent up to now is      635.7 secs

     End of self-consistent calculation

     Number of k-points >= 100: set verbosity='high' to print the bands.

     the Fermi energy is    19.0483 ev

!    total energy              =     -80.24091789 Ry
     estimated scf accuracy    <          9.7E-11 Ry
     smearing contrib. (-TS)   =      -0.00021376 Ry
     internal energy E=F+TS    =     -80.24070414 Ry

     The total energy is F=E-TS. E is the sum of the following terms:
     one-electron contribution =      23.38485351 Ry
     hartree contribution      =       4.12655080 Ry
     xc contribution           =     -27.74318941 Ry
     ewald contribution        =     -80.00891904 Ry

     convergence has been achieved in   6 iterations

     Forces acting on atoms (cartesian axes, Ry/au):

     atom    1 type  1   force =    -0.00000000   -0.00000000   -0.00000000
     atom    2 type  2   force =    -0.00053024    0.00053024    0.00053024
     atom    3 type  2   force =     0.00053024   -0.00053024   -0.00053024
     atom    4 type  2   force =     0.00093155   -0.00093155   -0.00093155
     atom    5 type  2   force =    -0.00093155    0.00093155    0.00093155
     atom    6 type  2   force =     0.00101337   -0.00101337    0.00135727
     atom    7 type  2   force =    -0.00101337    0.00101337   -0.00135727
     atom    8 type  2   force =    -0.00135727   -0.00101337   -0.00101337
     atom    9 type  2   force =     0.00135727    0.00101337    0.00101337
     atom   10 type  2   force =     0.00101337    0.00135727   -0.00101337
     atom   11 type  2   force =    -0.00101337   -0.00135727    0.00101337

     Total force =     0.005502     Total SCF correction =     0.000005


     Computing stress (Cartesian axis) and pressure

          total   stress  (Ry/bohr**3)                   (kbar)     P=     3005.91
   0.02043373  -0.00000252  -0.00000252         3005.91       -0.37       -0.37
  -0.00000252   0.02043373   0.00000252           -0.37     3005.91        0.37
  -0.00000252   0.00000252   0.02043373           -0.37        0.37     3005.91

     Energy error            =      1.2E-04 Ry
     Gradient error          =      1.4E-03 Ry/Bohr
     Cell gradient error     =      5.9E+00 kbar

     number of scf cycles    =  19
     number of bfgs steps    =  17

     enthalpy           old  =     -76.8013300707 Ry
     enthalpy           new  =     -76.8014505815 Ry

     CASE: enthalpy          _new < enthalpy          _old

     new trust radius        =       0.0148880292 bohr
     new conv_thr            =       0.0000000001 Ry

     new unit-cell volume =    168.61174 a.u.^3 (    24.98568 Ang^3 )
     density =      6.49311 g/cm^3

CELL_PARAMETERS (alat=  9.00000000)
  -0.489155176   0.003888555   0.489155176
  -0.003888555   0.489155176   0.489155176
  -0.489155176   0.489155176   0.003888555

ATOMIC_POSITIONS (crystal)
Sr              -0.0000000000       -0.0000000000        0.0000000000
H                0.2530168333        0.2530168333        0.2530168333
H                0.7469831667        0.7469831667        0.7469831667
H                0.3791384046        0.3791384046        0.3791384046
H                0.6208615954        0.6208615954        0.6208615954
H                0.3781868842        0.3781868842        0.8552904146
H                0.6218131158        0.6218131158        0.1447095854
H                0.3781868842        0.8552904146        0.3781868842
H                0.6218131158        0.1447095854        0.6218131158
H                0.8552904146        0.3781868842        0.3781868842
H                0.1447095854        0.6218131158        0.6218131158



     Writing config-only to output data dir ./out/srh10.save/ :
     XML data file
     NEW-OLD atomic charge density approx. for the potential
     New effective cutoffs (rho, wfc):  678.61   84.93

     total cpu time spent up to now is      637.5 secs

     per-process dynamical memory:    50.9 Mb

     Self-consistent Calculation

     iteration #  1     ecut=    80.00 Ry     beta= 0.30
     Davidson diagonalization with overlap
     ethr =  1.00E-06,  avg # of iterations =  3.1

     total cpu time spent up to now is      641.8 secs

     total energy              =     -80.24011661 Ry
     estimated scf accuracy    <       0.00003816 Ry

     iteration #  2     ecut=    80.00 Ry     beta= 0.30
     Davidson diagonalization with overlap
     ethr =  1.91E-07,  avg # of iterations =  1.0

     total cpu time spent up to now is      644.7 secs

     total energy              =     -80.24011374 Ry
     estimated scf accuracy    <       0.00001744 Ry

     iteration #  3     ecut=    80.00 Ry     beta= 0.30
     Davidson diagonalization with overlap
     ethr =  8.72E-08,  avg # of iterations =  1.0

     total cpu time spent up to now is      647.6 secs

     total energy              =     -80.24011417 Ry
     estimated scf accuracy    <       0.00000031 Ry

     iteration #  4     ecut=    80.00 Ry     beta= 0.30
     Davidson diagonalization with overlap
     ethr =  1.54E-09,  avg # of iterations =  2.1

     total cpu time spent up to now is      650.9 secs

     total energy              =     -80.24011422 Ry
     estimated scf accuracy    <       0.00000001 Ry

     iteration #  5     ecut=    80.00 Ry     beta= 0.30
     Davidson diagonalization with overlap
     ethr =  5.52E-11,  avg # of iterations =  1.8

     total cpu time spent up to now is      654.0 secs

     total energy              =     -80.24011422 Ry
     estimated scf accuracy    <          5.9E-10 Ry

     iteration #  6     ecut=    80.00 Ry     beta= 0.30
     Davidson diagonalization with overlap
     ethr =  2.96E-12,  avg # of iterations =  2.1

     total cpu time spent up to now is      657.5 secs

     End of self-consistent calculation

     Number of k-points >= 100: set verbosity='high' to print the bands.

     the Fermi energy is    19.0623 ev

!    total energy              =     -80.24011422 Ry
     estimated scf accuracy    <          8.8E-11 Ry
     smearing contrib. (-TS)   =      -0.00021905 Ry
     internal energy E=F+TS    =     -80.23989518 Ry

     The total energy is F=E-TS. E is the sum of the following terms:
     one-electron contribution =      23.39205610 Ry
     hartree contribution      =       4.12624268 Ry
     xc contribution           =     -27.74465511 Ry
     ewald contribution        =     -80.01353885 Ry

     convergence has been achieved in   6 iterations

     Forces acting on atoms (cartesian axes, Ry/au):

     atom    1 type  1   force =    -0.00000000    0.00000000   -0.00000000
     atom    2 type  2   force =    -0.00049590    0.00049590    0.00049590
     atom    3 type  2   force =     0.00049590   -0.00049590   -0.00049590
     atom    4 type  2   force =    -0.00005064    0.00005064    0.00005064
     atom    5 type  2   force =     0.00005064   -0.00005064   -0.00005064
     atom    6 type  2   force =     0.00089231   -0.00089231    0.00128840
     atom    7 type  2   force =    -0.00089231    0.00089231   -0.00128840
     atom    8 type  2   force =    -0.00128840   -0.00089231   -0.00089231
     atom    9 type  2   force =     0.00128840    0.00089231    0.00089231
     atom   10 type  2   force =     0.00089231    0.00128840   -0.00089231
     atom   11 type  2   force =    -0.00089231   -0.00128840    0.00089231

     Total force =     0.004583     Total SCF correction =     0.000006


     Computing stress (Cartesian axis) and pressure

          total   stress  (Ry/bohr**3)                   (kbar)     P=     3008.88
   0.02045397  -0.00002034  -0.00002034         3008.88       -2.99       -2.99
  -0.00002034   0.02045397   0.00002034           -2.99     3008.88        2.99
  -0.00002034   0.00002034   0.02045397           -2.99        2.99     3008.88

     Energy error            =      6.6E-05 Ry
     Gradient error          =      1.3E-03 Ry/Bohr
     Cell gradient error     =      8.9E+00 kbar

     number of scf cycles    =  20
     number of bfgs steps    =  18

     enthalpy           old  =     -76.8014505815 Ry
     enthalpy           new  =     -76.8015162464 Ry

     CASE: enthalpy          _new < enthalpy          _old

     new trust radius        =       0.0120391081 bohr
     new conv_thr            =       0.0000000001 Ry

     new unit-cell volume =    168.67457 a.u.^3 (    24.99499 Ang^3 )
     density =      6.49069 g/cm^3

CELL_PARAMETERS (alat=  9.00000000)
  -0.489465949   0.004384894   0.489465949
  -0.004384894   0.489465949   0.489465949
  -0.489465949   0.489465949   0.004384894

ATOMIC_POSITIONS (crystal)
Sr               0.0000000000       -0.0000000000        0.0000000000
H                0.2532265490        0.2532265490        0.2532265490
H                0.7467734510        0.7467734510        0.7467734510
H                0.3783520984        0.3783520984        0.3783520984
H                0.6216479016        0.6216479016        0.6216479016
H                0.3781055370        0.3781055370        0.8542472269
H                0.6218944630        0.6218944630        0.1457527731
H                0.3781055370        0.8542472269        0.3781055370
H                0.6218944630        0.1457527731        0.6218944630
H                0.8542472269        0.3781055370        0.3781055370
H                0.1457527731        0.6218944630        0.6218944630



     Writing config-only to output data dir ./out/srh10.save/ :
     XML data file
     NEW-OLD atomic charge density approx. for the potential
     New effective cutoffs (rho, wfc):  679.10   85.00

     total cpu time spent up to now is      659.3 secs

     per-process dynamical memory:    51.2 Mb

     Self-consistent Calculation

     iteration #  1     ecut=    80.00 Ry     beta= 0.30
     Davidson diagonalization with overlap
     ethr =  1.00E-06,  avg # of iterations =  3.3

     total cpu time spent up to now is      663.7 secs

     total energy              =     -80.24144322 Ry
     estimated scf accuracy    <       0.00004028 Ry

     iteration #  2     ecut=    80.00 Ry     beta= 0.30
     Davidson diagonalization with overlap
     ethr =  2.01E-07,  avg # of iterations =  1.0

     total cpu time spent up to now is      666.6 secs

     total energy              =     -80.24144003 Ry
     estimated scf accuracy    <       0.00001787 Ry

     iteration #  3     ecut=    80.00 Ry     beta= 0.30
     Davidson diagonalization with overlap
     ethr =  8.93E-08,  avg # of iterations =  1.0

     total cpu time spent up to now is      669.5 secs

     total energy              =     -80.24144058 Ry
     estimated scf accuracy    <       0.00000051 Ry

     iteration #  4     ecut=    80.00 Ry     beta= 0.30
     Davidson diagonalization with overlap
     ethr =  2.53E-09,  avg # of iterations =  2.0

     total cpu time spent up to now is      672.9 secs

     total energy              =     -80.24144067 Ry
     estimated scf accuracy    <       0.00000001 Ry

     iteration #  5     ecut=    80.00 Ry     beta= 0.30
     Davidson diagonalization with overlap
     ethr =  7.20E-11,  avg # of iterations =  1.8

     total cpu time spent up to now is      676.0 secs

     total energy              =     -80.24144067 Ry
     estimated scf accuracy    <          7.2E-10 Ry

     iteration #  6     ecut=    80.00 Ry     beta= 0.30
     Davidson diagonalization with overlap
     ethr =  3.58E-12,  avg # of iterations =  2.3

     total cpu time spent up to now is      679.5 secs

     End of self-consistent calculation

     Number of k-points >= 100: set verbosity='high' to print the bands.

     the Fermi energy is    19.0665 ev

!    total energy              =     -80.24144067 Ry
     estimated scf accuracy    <          9.4E-11 Ry
     smearing contrib. (-TS)   =      -0.00023859 Ry
     internal energy E=F+TS    =     -80.24120208 Ry

     The total energy is F=E-TS. E is the sum of the following terms:
     one-electron contribution =      23.37447954 Ry
     hartree contribution      =       4.12932139 Ry
     xc contribution           =     -27.74414304 Ry
     ewald contribution        =     -80.00085997 Ry

     convergence has been achieved in   6 iterations

     Forces acting on atoms (cartesian axes, Ry/au):

     atom    1 type  1   force =    -0.00000000   -0.00000000    0.00000000
     atom    2 type  2   force =    -0.00050994    0.00050994    0.00050994
     atom    3 type  2   force =     0.00050994   -0.00050994   -0.00050994
     atom    4 type  2   force =    -0.00038127    0.00038127    0.00038127
     atom    5 type  2   force =     0.00038127   -0.00038127   -0.00038127
     atom    6 type  2   force =     0.00039970   -0.00039970    0.00075620
     atom    7 type  2   force =    -0.00039970    0.00039970   -0.00075620
     atom    8 type  2   force =    -0.00075620   -0.00039970   -0.00039970
     atom    9 type  2   force =     0.00075620    0.00039970    0.00039970
     atom   10 type  2   force =     0.00039970    0.00075620   -0.00039970
     atom   11 type  2   force =    -0.00039970   -0.00075620    0.00039970

     Total force =     0.002789     Total SCF correction =     0.000006


     Computing stress (Cartesian axis) and pressure

          total   stress  (Ry/bohr**3)                   (kbar)     P=     3006.72
   0.02043927  -0.00002497  -0.00002497         3006.72       -3.67       -3.67
  -0.00002497   0.02043927   0.00002497           -3.67     3006.72        3.67
  -0.00002497   0.00002497   0.02043927           -3.67        3.67     3006.72

     Energy error            =      4.5E-05 Ry
     Gradient error          =      7.6E-04 Ry/Bohr
     Cell gradient error     =      6.7E+00 kbar

     number of scf cycles    =  21
     number of bfgs steps    =  19

     enthalpy           old  =     -76.8015162464 Ry
     enthalpy           new  =     -76.8015613982 Ry

     CASE: enthalpy          _new < enthalpy          _old

     new trust radius        =       0.0067856721 bohr
     new conv_thr            =            7.6E-11 Ry

     new unit-cell volume =    168.78423 a.u.^3 (    25.01124 Ang^3 )
     density =      6.48647 g/cm^3

CELL_PARAMETERS (alat=  9.00000000)
  -0.489943693   0.005122084   0.489943693
  -0.005122084   0.489943693   0.489943693
  -0.489943693   0.489943693   0.005122084

ATOMIC_POSITIONS (crystal)
Sr               0.0000000000       -0.0000000000        0.0000000000
H                0.2534166279        0.2534166279        0.2534166279
H                0.7465833721        0.7465833721        0.7465833721
H                0.3779094119        0.3779094119        0.3779094119
H                0.6220905881        0.6220905881        0.6220905881
H                0.3780378553        0.3780378553        0.8534700044
H                0.6219621447        0.6219621447        0.1465299956
H                0.3780378553        0.8534700044        0.3780378553
H                0.6219621447        0.1465299956        0.6219621447
H                0.8534700044        0.3780378553        0.3780378553
H                0.1465299956        0.6219621447        0.6219621447



     Writing config-only to output data dir ./out/srh10.save/ :
     XML data file
     NEW-OLD atomic charge density approx. for the potential
     New effective cutoffs (rho, wfc):  679.78   85.09

     total cpu time spent up to now is      681.3 secs

     per-process dynamical memory:    51.2 Mb

     Self-consistent Calculation

     iteration #  1     ecut=    80.00 Ry     beta= 0.30
     Davidson diagonalization with overlap
     ethr =  1.00E-06,  avg # of iterations =  2.9

     total cpu time spent up to now is      685.5 secs

     total energy              =     -80.24370051 Ry
     estimated scf accuracy    <       0.00002257 Ry

     iteration #  2     ecut=    80.00 Ry     beta= 0.30
     Davidson diagonalization with overlap
     ethr =  1.13E-07,  avg # of iterations =  1.3

     total cpu time spent up to now is      688.5 secs

     total energy              =     -80.24369879 Ry
     estimated scf accuracy    <       0.00000935 Ry

     iteration #  3     ecut=    80.00 Ry     beta= 0.30
     Davidson diagonalization with overlap
     ethr =  4.68E-08,  avg # of iterations =  1.7

     total cpu time spent up to now is      691.5 secs

     total energy              =     -80.24369930 Ry
     estimated scf accuracy    <       0.00000046 Ry

     iteration #  4     ecut=    80.00 Ry     beta= 0.30
     Davidson diagonalization with overlap
     ethr =  2.29E-09,  avg # of iterations =  2.0

     total cpu time spent up to now is      694.8 secs

     total energy              =     -80.24369936 Ry
     estimated scf accuracy    <       0.00000002 Ry

     iteration #  5     ecut=    80.00 Ry     beta= 0.30
     Davidson diagonalization with overlap
     ethr =  1.09E-10,  avg # of iterations =  1.3

     total cpu time spent up to now is      697.7 secs

     total energy              =     -80.24369936 Ry
     estimated scf accuracy    <          4.7E-10 Ry

     iteration #  6     ecut=    80.00 Ry     beta= 0.30
     Davidson diagonalization with overlap
     ethr =  2.36E-12,  avg # of iterations =  2.8

     total cpu time spent up to now is      701.6 secs

     total energy              =     -80.24369936 Ry
     estimated scf accuracy    <          1.4E-10 Ry

     iteration #  7     ecut=    80.00 Ry     beta= 0.30
     Davidson diagonalization with overlap
     ethr =  7.10E-13,  avg # of iterations =  2.0

     total cpu time spent up to now is      705.0 secs

     End of self-consistent calculation

     Number of k-points >= 100: set verbosity='high' to print the bands.

     the Fermi energy is    19.0630 ev

!    total energy              =     -80.24369936 Ry
     estimated scf accuracy    <          7.4E-12 Ry
     smearing contrib. (-TS)   =      -0.00025399 Ry
     internal energy E=F+TS    =     -80.24344537 Ry

     The total energy is F=E-TS. E is the sum of the following terms:
     one-electron contribution =      23.34666847 Ry
     hartree contribution      =       4.13368674 Ry
     xc contribution           =     -27.74247393 Ry
     ewald contribution        =     -79.98132666 Ry

     convergence has been achieved in   7 iterations

     Forces acting on atoms (cartesian axes, Ry/au):

     atom    1 type  1   force =     0.00000000    0.00000000    0.00000000
     atom    2 type  2   force =    -0.00049803    0.00049803    0.00049803
     atom    3 type  2   force =     0.00049803   -0.00049803   -0.00049803
     atom    4 type  2   force =    -0.00028585    0.00028585    0.00028585
     atom    5 type  2   force =     0.00028585   -0.00028585   -0.00028585
     atom    6 type  2   force =     0.00000879   -0.00000879    0.00006188
     atom    7 type  2   force =    -0.00000879    0.00000879   -0.00006188
     atom    8 type  2   force =    -0.00006188   -0.00000879   -0.00000879
     atom    9 type  2   force =     0.00006188    0.00000879    0.00000879
     atom   10 type  2   force =     0.00000879    0.00006188   -0.00000879
     atom   11 type  2   force =    -0.00000879   -0.00006188    0.00000879

     Total force =     0.001415     Total SCF correction =     0.000001


     Computing stress (Cartesian axis) and pressure

          total   stress  (Ry/bohr**3)                   (kbar)     P=     3002.04
   0.02040746  -0.00001227  -0.00001227         3002.04       -1.80       -1.80
  -0.00001227   0.02040746   0.00001227           -1.80     3002.04        1.80
  -0.00001227   0.00001227   0.02040746           -1.80        1.80     3002.04

     Energy error            =      2.2E-05 Ry
     Gradient error          =      5.0E-04 Ry/Bohr
     Cell gradient error     =      2.0E+00 kbar

     number of scf cycles    =  22
     number of bfgs steps    =  20

     enthalpy           old  =     -76.8015613982 Ry
     enthalpy           new  =     -76.8015837047 Ry

     CASE: enthalpy          _new < enthalpy          _old

     new trust radius        =       0.0017344549 bohr
     new conv_thr            =            5.0E-11 Ry

     new unit-cell volume =    168.83576 a.u.^3 (    25.01888 Ang^3 )
     density =      6.48449 g/cm^3

CELL_PARAMETERS (alat=  9.00000000)
  -0.490162426   0.005456763   0.490162426
  -0.005456763   0.490162426   0.490162426
  -0.490162426   0.490162426   0.005456763

ATOMIC_POSITIONS (crystal)
Sr               0.0000000000       -0.0000000000        0.0000000000
H                0.2535295865        0.2535295865        0.2535295865
H                0.7464704135        0.7464704135        0.7464704135
H                0.3778705753        0.3778705753        0.3778705753
H                0.6221294247        0.6221294247        0.6221294247
H                0.3780247351        0.3780247351        0.8532939172
H                0.6219752649        0.6219752649        0.1467060828
H                0.3780247351        0.8532939172        0.3780247351
H                0.6219752649        0.1467060828        0.6219752649
H                0.8532939172        0.3780247351        0.3780247351
H                0.1467060828        0.6219752649        0.6219752649



     Writing config-only to output data dir ./out/srh10.save/ :
     XML data file
     NEW-OLD atomic charge density approx. for the potential
     New effective cutoffs (rho, wfc):  680.08   85.13

     total cpu time spent up to now is      706.8 secs

     per-process dynamical memory:    51.2 Mb

     Self-consistent Calculation

     iteration #  1     ecut=    80.00 Ry     beta= 0.30
     Davidson diagonalization with overlap
     ethr =  1.00E-06,  avg # of iterations =  2.0

     Threshold (ethr) on eigenvalues was too large:
     Diagonalizing with lowered threshold

     Davidson diagonalization with overlap
     ethr =  9.80E-09,  avg # of iterations =  1.9

     total cpu time spent up to now is      713.7 secs

     total energy              =     -80.24475501 Ry
     estimated scf accuracy    <       0.00000205 Ry

     iteration #  2     ecut=    80.00 Ry     beta= 0.30
     Davidson diagonalization with overlap
     ethr =  1.02E-08,  avg # of iterations =  1.0

     total cpu time spent up to now is      716.6 secs

     total energy              =     -80.24475483 Ry
     estimated scf accuracy    <       0.00000067 Ry

     iteration #  3     ecut=    80.00 Ry     beta= 0.30
     Davidson diagonalization with overlap
     ethr =  3.35E-09,  avg # of iterations =  2.0

     total cpu time spent up to now is      719.9 secs

     total energy              =     -80.24475490 Ry
     estimated scf accuracy    <       0.00000004 Ry

     iteration #  4     ecut=    80.00 Ry     beta= 0.30
     Davidson diagonalization with overlap
     ethr =  2.17E-10,  avg # of iterations =  1.3

     total cpu time spent up to now is      722.9 secs

     total energy              =     -80.24475490 Ry
     estimated scf accuracy    <          9.0E-10 Ry

     iteration #  5     ecut=    80.00 Ry     beta= 0.30
     Davidson diagonalization with overlap
     ethr =  4.50E-12,  avg # of iterations =  2.1

     total cpu time spent up to now is      726.4 secs

     End of self-consistent calculation

     Number of k-points >= 100: set verbosity='high' to print the bands.

     the Fermi energy is    19.0598 ev

!    total energy              =     -80.24475490 Ry
     estimated scf accuracy    <          4.3E-11 Ry
     smearing contrib. (-TS)   =      -0.00025733 Ry
     internal energy E=F+TS    =     -80.24449757 Ry

     The total energy is F=E-TS. E is the sum of the following terms:
     one-electron contribution =      23.33406016 Ry
     hartree contribution      =       4.13559518 Ry
     xc contribution           =     -27.74153865 Ry
     ewald contribution        =     -79.97261427 Ry

     convergence has been achieved in   5 iterations

     Forces acting on atoms (cartesian axes, Ry/au):

     atom    1 type  1   force =     0.00000000    0.00000000    0.00000000
     atom    2 type  2   force =    -0.00042685    0.00042685    0.00042685
     atom    3 type  2   force =     0.00042685   -0.00042685   -0.00042685
     atom    4 type  2   force =    -0.00013164    0.00013164    0.00013164
     atom    5 type  2   force =     0.00013164   -0.00013164   -0.00013164
     atom    6 type  2   force =    -0.00006413    0.00006413   -0.00028259
     atom    7 type  2   force =     0.00006413   -0.00006413    0.00028259
     atom    8 type  2   force =     0.00028259    0.00006413    0.00006413
     atom    9 type  2   force =    -0.00028259   -0.00006413   -0.00006413
     atom   10 type  2   force =    -0.00006413   -0.00028259    0.00006413
     atom   11 type  2   force =     0.00006413    0.00028259   -0.00006413

     Total force =     0.001314     Total SCF correction =     0.000003


     Computing stress (Cartesian axis) and pressure

          total   stress  (Ry/bohr**3)                   (kbar)     P=     2999.67
   0.02039132  -0.00000102  -0.00000102         2999.67       -0.15       -0.15
  -0.00000102   0.02039132   0.00000102           -0.15     2999.67        0.15
  -0.00000102   0.00000102   0.02039132           -0.15        0.15     2999.67

     Energy error            =      4.7E-06 Ry
     Gradient error          =      4.3E-04 Ry/Bohr
     Cell gradient error     =      3.3E-01 kbar

     number of scf cycles    =  23
     number of bfgs steps    =  21

     enthalpy           old  =     -76.8015837047 Ry
     enthalpy           new  =     -76.8015884507 Ry

     CASE: enthalpy          _new < enthalpy          _old

     new trust radius        =       0.0014689545 bohr
     new conv_thr            =            4.3E-11 Ry

     new unit-cell volume =    168.85326 a.u.^3 (    25.02147 Ang^3 )
     density =      6.48382 g/cm^3

CELL_PARAMETERS (alat=  9.00000000)
  -0.490242073   0.005580969   0.490242073
  -0.005580969   0.490242073   0.490242073
  -0.490242073   0.490242073   0.005580969

ATOMIC_POSITIONS (crystal)
Sr               0.0000000000       -0.0000000000        0.0000000000
H                0.2536251792        0.2536251792        0.2536251792
H                0.7463748208        0.7463748208        0.7463748208
H                0.3779032591        0.3779032591        0.3779032591
H                0.6220967409        0.6220967409        0.6220967409
H                0.3780044600        0.3780044600        0.8532847625
H                0.6219955400        0.6219955400        0.1467152375
H                0.3780044600        0.8532847625        0.3780044600
H                0.6219955400        0.1467152375        0.6219955400
H                0.8532847625        0.3780044600        0.3780044600
H                0.1467152375        0.6219955400        0.6219955400



     Writing config-only to output data dir ./out/srh10.save/ :
     XML data file
     NEW-OLD atomic charge density approx. for the potential
     New effective cutoffs (rho, wfc):  680.20   85.14

     total cpu time spent up to now is      728.2 secs

     per-process dynamical memory:    51.3 Mb

     Self-consistent Calculation

     iteration #  1     ecut=    80.00 Ry     beta= 0.30
     Davidson diagonalization with overlap
     ethr =  1.00E-06,  avg # of iterations =  2.0

     Threshold (ethr) on eigenvalues was too large:
     Diagonalizing with lowered threshold

     Davidson diagonalization with overlap
     ethr =  1.41E-09,  avg # of iterations =  2.1

     total cpu time spent up to now is      735.0 secs

     total energy              =     -80.24511407 Ry
     estimated scf accuracy    <       0.00000031 Ry

     iteration #  2     ecut=    80.00 Ry     beta= 0.30
     Davidson diagonalization with overlap
     ethr =  1.54E-09,  avg # of iterations =  1.0

     total cpu time spent up to now is      737.9 secs

     total energy              =     -80.24511404 Ry
     estimated scf accuracy    <       0.00000009 Ry

     iteration #  3     ecut=    80.00 Ry     beta= 0.30
     Davidson diagonalization with overlap
     ethr =  4.63E-10,  avg # of iterations =  2.0

     total cpu time spent up to now is      741.2 secs

     total energy              =     -80.24511406 Ry
     estimated scf accuracy    <          5.6E-09 Ry

     iteration #  4     ecut=    80.00 Ry     beta= 0.30
     Davidson diagonalization with overlap
     ethr =  2.79E-11,  avg # of iterations =  1.3

     total cpu time spent up to now is      744.2 secs

     total energy              =     -80.24511406 Ry
     estimated scf accuracy    <          2.1E-10 Ry

     iteration #  5     ecut=    80.00 Ry     beta= 0.30
     Davidson diagonalization with overlap
     ethr =  1.06E-12,  avg # of iterations =  2.1

     total cpu time spent up to now is      747.6 secs

     End of self-consistent calculation

     Number of k-points >= 100: set verbosity='high' to print the bands.

     the Fermi energy is    19.0586 ev

!    total energy              =     -80.24511406 Ry
     estimated scf accuracy    <          7.9E-12 Ry
     smearing contrib. (-TS)   =      -0.00025798 Ry
     internal energy E=F+TS    =     -80.24485608 Ry

     The total energy is F=E-TS. E is the sum of the following terms:
     one-electron contribution =      23.32972318 Ry
     hartree contribution      =       4.13628893 Ry
     xc contribution           =     -27.74120934 Ry
     ewald contribution        =     -79.96965885 Ry

     convergence has been achieved in   5 iterations

     Forces acting on atoms (cartesian axes, Ry/au):

     atom    1 type  1   force =     0.00000000    0.00000000    0.00000000
     atom    2 type  2   force =    -0.00036131    0.00036131    0.00036131
     atom    3 type  2   force =     0.00036131   -0.00036131   -0.00036131
     atom    4 type  2   force =    -0.00004346    0.00004346    0.00004346
     atom    5 type  2   force =     0.00004346   -0.00004346   -0.00004346
     atom    6 type  2   force =    -0.00005700    0.00005700   -0.00041491
     atom    7 type  2   force =     0.00005700   -0.00005700    0.00041491
     atom    8 type  2   force =     0.00041491    0.00005700    0.00005700
     atom    9 type  2   force =    -0.00041491   -0.00005700   -0.00005700
     atom   10 type  2   force =    -0.00005700   -0.00041491    0.00005700
     atom   11 type  2   force =     0.00005700    0.00041491   -0.00005700

     Total force =     0.001366     Total SCF correction =     0.000001


     Computing stress (Cartesian axis) and pressure

          total   stress  (Ry/bohr**3)                   (kbar)     P=     2998.86
   0.02038585   0.00000411   0.00000411         2998.86        0.60        0.60
   0.00000411   0.02038585  -0.00000411            0.60     2998.86       -0.60
   0.00000411  -0.00000411   0.02038585            0.60       -0.60     2998.86

     Energy error            =      2.2E-06 Ry
     Gradient error          =      4.1E-04 Ry/Bohr
     Cell gradient error     =      1.1E+00 kbar

     number of scf cycles    =  24
     number of bfgs steps    =  22

     enthalpy           old  =     -76.8015884507 Ry
     enthalpy           new  =     -76.8015906025 Ry

     CASE: enthalpy          _new < enthalpy          _old

     new trust radius        =       0.0016163146 bohr
     new conv_thr            =            2.2E-11 Ry

     new unit-cell volume =    168.86285 a.u.^3 (    25.02289 Ang^3 )
     density =      6.48345 g/cm^3

CELL_PARAMETERS (alat=  9.00000000)
  -0.490300431   0.005678129   0.490300431
  -0.005678129   0.490300431   0.490300431
  -0.490300431   0.490300431   0.005678129

ATOMIC_POSITIONS (crystal)
Sr               0.0000000000       -0.0000000000        0.0000000000
H                0.2537303311        0.2537303311        0.2537303311
H                0.7462696689        0.7462696689        0.7462696689
H                0.3779187376        0.3779187376        0.3779187376
H                0.6220812624        0.6220812624        0.6220812624
H                0.3779586046        0.3779586046        0.8532872994
H                0.6220413954        0.6220413954        0.1467127006
H                0.3779586046        0.8532872994        0.3779586046
H                0.6220413954        0.1467127006        0.6220413954
H                0.8532872994        0.3779586046        0.3779586046
H                0.1467127006        0.6220413954        0.6220413954



     Writing config-only to output data dir ./out/srh10.save/ :
     XML data file
     NEW-OLD atomic charge density approx. for the potential
     New effective cutoffs (rho, wfc):  680.30   85.16

     total cpu time spent up to now is      749.5 secs

     per-process dynamical memory:    51.3 Mb

     Self-consistent Calculation

     iteration #  1     ecut=    80.00 Ry     beta= 0.30
     Davidson diagonalization with overlap
     ethr =  1.00E-06,  avg # of iterations =  2.0

     Threshold (ethr) on eigenvalues was too large:
     Diagonalizing with lowered threshold

     Davidson diagonalization with overlap
     ethr =  1.55E-09,  avg # of iterations =  2.0

     total cpu time spent up to now is      756.1 secs

     total energy              =     -80.24531173 Ry
     estimated scf accuracy    <       0.00000033 Ry

     iteration #  2     ecut=    80.00 Ry     beta= 0.30
     Davidson diagonalization with overlap
     ethr =  1.64E-09,  avg # of iterations =  1.0

     total cpu time spent up to now is      759.0 secs

     total energy              =     -80.24531170 Ry
     estimated scf accuracy    <       0.00000012 Ry

     iteration #  3     ecut=    80.00 Ry     beta= 0.30
     Davidson diagonalization with overlap
     ethr =  5.99E-10,  avg # of iterations =  1.9

     total cpu time spent up to now is      762.2 secs

     total energy              =     -80.24531171 Ry
     estimated scf accuracy    <          8.1E-09 Ry

     iteration #  4     ecut=    80.00 Ry     beta= 0.30
     Davidson diagonalization with overlap
     ethr =  4.06E-11,  avg # of iterations =  1.7

     total cpu time spent up to now is      765.2 secs

     total energy              =     -80.24531171 Ry
     estimated scf accuracy    <          1.1E-10 Ry

     iteration #  5     ecut=    80.00 Ry     beta= 0.30
     Davidson diagonalization with overlap
     ethr =  5.53E-13,  avg # of iterations =  2.1

     total cpu time spent up to now is      768.7 secs

     End of self-consistent calculation

     Number of k-points >= 100: set verbosity='high' to print the bands.

     the Fermi energy is    19.0583 ev

!    total energy              =     -80.24531171 Ry
     estimated scf accuracy    <          4.5E-12 Ry
     smearing contrib. (-TS)   =      -0.00025845 Ry
     internal energy E=F+TS    =     -80.24505326 Ry

     The total energy is F=E-TS. E is the sum of the following terms:
     one-electron contribution =      23.32712968 Ry
     hartree contribution      =       4.13676767 Ry
     xc contribution           =     -27.74106057 Ry
     ewald contribution        =     -79.96789004 Ry

     convergence has been achieved in   5 iterations

     Forces acting on atoms (cartesian axes, Ry/au):

     atom    1 type  1   force =    -0.00000000   -0.00000000    0.00000000
     atom    2 type  2   force =    -0.00031141    0.00031141    0.00031141
     atom    3 type  2   force =     0.00031141   -0.00031141   -0.00031141
     atom    4 type  2   force =     0.00000933   -0.00000933   -0.00000933
     atom    5 type  2   force =    -0.00000933    0.00000933    0.00000933
     atom    6 type  2   force =    -0.00004646    0.00004646   -0.00047792
     atom    7 type  2   force =     0.00004646   -0.00004646    0.00047792
     atom    8 type  2   force =     0.00047792    0.00004646    0.00004646
     atom    9 type  2   force =    -0.00047792   -0.00004646   -0.00004646
     atom   10 type  2   force =    -0.00004646   -0.00047792    0.00004646
     atom   11 type  2   force =     0.00004646    0.00047792   -0.00004646

     Total force =     0.001407     Total SCF correction =     0.000000


     Computing stress (Cartesian axis) and pressure

          total   stress  (Ry/bohr**3)                   (kbar)     P=     2998.48
   0.02038328   0.00000690   0.00000690         2998.48        1.01        1.01
   0.00000690   0.02038328  -0.00000690            1.01     2998.48       -1.01
   0.00000690  -0.00000690   0.02038328            1.01       -1.01     2998.48

     Energy error            =      2.2E-06 Ry
     Gradient error          =      4.8E-04 Ry/Bohr
     Cell gradient error     =      1.5E+00 kbar

     number of scf cycles    =  25
     number of bfgs steps    =  23

     enthalpy           old  =     -76.8015906025 Ry
     enthalpy           new  =     -76.8015928248 Ry

     CASE: enthalpy          _new < enthalpy          _old

     new trust radius        =       0.0024249978 bohr
     new conv_thr            =            2.2E-11 Ry

     new unit-cell volume =    168.87207 a.u.^3 (    25.02426 Ang^3 )
     density =      6.48310 g/cm^3

CELL_PARAMETERS (alat=  9.00000000)
  -0.490374740   0.005807479   0.490374740
  -0.005807479   0.490374740   0.490374740
  -0.490374740   0.490374740   0.005807479

ATOMIC_POSITIONS (crystal)
Sr               0.0000000000       -0.0000000000        0.0000000000
H                0.2538880590        0.2538880590        0.2538880590
H                0.7461119410        0.7461119410        0.7461119410
H                0.3779192175        0.3779192175        0.3779192175
H                0.6220807825        0.6220807825        0.6220807825
H                0.3778707391        0.3778707391        0.8532888226
H                0.6221292609        0.6221292609        0.1467111774
H                0.3778707391        0.8532888226        0.3778707391
H                0.6221292609        0.1467111774        0.6221292609
H                0.8532888226        0.3778707391        0.3778707391
H                0.1467111774        0.6221292609        0.6221292609



     Writing config-only to output data dir ./out/srh10.save/ :
     XML data file
     NEW-OLD atomic charge density approx. for the potential
     New effective cutoffs (rho, wfc):  680.45   85.18

     total cpu time spent up to now is      770.5 secs

     per-process dynamical memory:    51.3 Mb

     Self-consistent Calculation

     iteration #  1     ecut=    80.00 Ry     beta= 0.30
     Davidson diagonalization with overlap
     ethr =  1.00E-06,  avg # of iterations =  2.0

     Threshold (ethr) on eigenvalues was too large:
     Diagonalizing with lowered threshold

     Davidson diagonalization with overlap
     ethr =  4.22E-09,  avg # of iterations =  1.9

     total cpu time spent up to now is      777.3 secs

     total energy              =     -80.24550324 Ry
     estimated scf accuracy    <       0.00000088 Ry

     iteration #  2     ecut=    80.00 Ry     beta= 0.30
     Davidson diagonalization with overlap
     ethr =  4.38E-09,  avg # of iterations =  1.0

     total cpu time spent up to now is      780.2 secs

     total energy              =     -80.24550317 Ry
     estimated scf accuracy    <       0.00000035 Ry

     iteration #  3     ecut=    80.00 Ry     beta= 0.30
     Davidson diagonalization with overlap
     ethr =  1.74E-09,  avg # of iterations =  1.6

     total cpu time spent up to now is      783.2 secs

     total energy              =     -80.24550319 Ry
     estimated scf accuracy    <       0.00000002 Ry

     iteration #  4     ecut=    80.00 Ry     beta= 0.30
     Davidson diagonalization with overlap
     ethr =  9.72E-11,  avg # of iterations =  2.0

     total cpu time spent up to now is      786.5 secs

     total energy              =     -80.24550319 Ry
     estimated scf accuracy    <          1.5E-10 Ry

     iteration #  5     ecut=    80.00 Ry     beta= 0.30
     Davidson diagonalization with overlap
     ethr =  7.64E-13,  avg # of iterations =  2.2

     total cpu time spent up to now is      790.1 secs

     End of self-consistent calculation

     Number of k-points >= 100: set verbosity='high' to print the bands.

     the Fermi energy is    19.0585 ev

!    total energy              =     -80.24550319 Ry
     estimated scf accuracy    <          1.2E-11 Ry
     smearing contrib. (-TS)   =      -0.00025894 Ry
     internal energy E=F+TS    =     -80.24524425 Ry

     The total energy is F=E-TS. E is the sum of the following terms:
     one-electron contribution =      23.32434169 Ry
     hartree contribution      =       4.13735668 Ry
     xc contribution           =     -27.74096358 Ry
     ewald contribution        =     -79.96597904 Ry

     convergence has been achieved in   5 iterations

     Forces acting on atoms (cartesian axes, Ry/au):

     atom    1 type  1   force =     0.00000000    0.00000000    0.00000000
     atom    2 type  2   force =    -0.00025565    0.00025565    0.00025565
     atom    3 type  2   force =     0.00025565   -0.00025565   -0.00025565
     atom    4 type  2   force =     0.00005621   -0.00005621   -0.00005621
     atom    5 type  2   force =    -0.00005621    0.00005621    0.00005621
     atom    6 type  2   force =    -0.00003543    0.00003543   -0.00051940
     atom    7 type  2   force =     0.00003543   -0.00003543    0.00051940
     atom    8 type  2   force =     0.00051940    0.00003543    0.00003543
     atom    9 type  2   force =    -0.00051940   -0.00003543   -0.00003543
     atom   10 type  2   force =    -0.00003543   -0.00051940    0.00003543
     atom   11 type  2   force =     0.00003543    0.00051940   -0.00003543

     Total force =     0.001430     Total SCF correction =     0.000001


     Computing stress (Cartesian axis) and pressure

          total   stress  (Ry/bohr**3)                   (kbar)     P=     2998.21
   0.02038141   0.00000917   0.00000917         2998.21        1.35        1.35
   0.00000917   0.02038141  -0.00000917            1.35     2998.21       -1.35
   0.00000917  -0.00000917   0.02038141            1.35       -1.35     2998.21

     Energy error            =      3.3E-06 Ry
     Gradient error          =      5.2E-04 Ry/Bohr
     Cell gradient error     =      1.8E+00 kbar

     number of scf cycles    =  26
     number of bfgs steps    =  24

     enthalpy           old  =     -76.8015928248 Ry
     enthalpy           new  =     -76.8015961589 Ry

     CASE: enthalpy          _new < enthalpy          _old

     new trust radius        =       0.0036385218 bohr
     new conv_thr            =            3.3E-11 Ry

     new unit-cell volume =    168.88175 a.u.^3 (    25.02569 Ang^3 )
     density =      6.48272 g/cm^3

CELL_PARAMETERS (alat=  9.00000000)
  -0.490475610   0.005988421   0.490475610
  -0.005988421   0.490475610   0.490475610
  -0.490475610   0.490475610   0.005988421

ATOMIC_POSITIONS (crystal)
Sr               0.0000000000       -0.0000000000        0.0000000000
H                0.2541246508        0.2541246508        0.2541246508
H                0.7458753492        0.7458753492        0.7458753492
H                0.3778997466        0.3778997466        0.3778997466
H                0.6221002534        0.6221002534        0.6221002534
H                0.3777213428        0.3777213428        0.8532892071
H                0.6222786572        0.6222786572        0.1467107929
H                0.3777213428        0.8532892071        0.3777213428
H                0.6222786572        0.1467107929        0.6222786572
H                0.8532892071        0.3777213428        0.3777213428
H                0.1467107929        0.6222786572        0.6222786572



     Writing config-only to output data dir ./out/srh10.save/ :
     XML data file
     NEW-OLD atomic charge density approx. for the potential
     New effective cutoffs (rho, wfc):  680.66   85.20

     total cpu time spent up to now is      791.9 secs

     per-process dynamical memory:    51.3 Mb

     Self-consistent Calculation

     iteration #  1     ecut=    80.00 Ry     beta= 0.30
     Davidson diagonalization with overlap
     ethr =  1.00E-06,  avg # of iterations =  2.0

     Threshold (ethr) on eigenvalues was too large:
     Diagonalizing with lowered threshold

     Davidson diagonalization with overlap
     ethr =  1.08E-08,  avg # of iterations =  1.7

     total cpu time spent up to now is      798.7 secs

     total energy              =     -80.24570550 Ry
     estimated scf accuracy    <       0.00000223 Ry

     iteration #  2     ecut=    80.00 Ry     beta= 0.30
     Davidson diagonalization with overlap
     ethr =  1.12E-08,  avg # of iterations =  1.0

     total cpu time spent up to now is      801.6 secs

     total energy              =     -80.24570532 Ry
     estimated scf accuracy    <       0.00000092 Ry

     iteration #  3     ecut=    80.00 Ry     beta= 0.30
     Davidson diagonalization with overlap
     ethr =  4.61E-09,  avg # of iterations =  1.3

     total cpu time spent up to now is      804.5 secs

     total energy              =     -80.24570536 Ry
     estimated scf accuracy    <       0.00000004 Ry

     iteration #  4     ecut=    80.00 Ry     beta= 0.30
     Davidson diagonalization with overlap
     ethr =  2.16E-10,  avg # of iterations =  2.0

     total cpu time spent up to now is      807.8 secs

     total energy              =     -80.24570536 Ry
     estimated scf accuracy    <          2.6E-10 Ry

     iteration #  5     ecut=    80.00 Ry     beta= 0.30
     Davidson diagonalization with overlap
     ethr =  1.31E-12,  avg # of iterations =  2.3

     total cpu time spent up to now is      811.5 secs

     End of self-consistent calculation

     Number of k-points >= 100: set verbosity='high' to print the bands.

     the Fermi energy is    19.0592 ev

!    total energy              =     -80.24570536 Ry
     estimated scf accuracy    <          3.2E-11 Ry
     smearing contrib. (-TS)   =      -0.00025904 Ry
     internal energy E=F+TS    =     -80.24544632 Ry

     The total energy is F=E-TS. E is the sum of the following terms:
     one-electron contribution =      23.32101966 Ry
     hartree contribution      =       4.13814966 Ry
     xc contribution           =     -27.74092473 Ry
     ewald contribution        =     -79.96369091 Ry

     convergence has been achieved in   5 iterations

     Forces acting on atoms (cartesian axes, Ry/au):

     atom    1 type  1   force =     0.00000000    0.00000000    0.00000000
     atom    2 type  2   force =    -0.00018891    0.00018891    0.00018891
     atom    3 type  2   force =     0.00018891   -0.00018891   -0.00018891
     atom    4 type  2   force =     0.00009719   -0.00009719   -0.00009719
     atom    5 type  2   force =    -0.00009719    0.00009719    0.00009719
     atom    6 type  2   force =    -0.00002463    0.00002463   -0.00053524
     atom    7 type  2   force =     0.00002463   -0.00002463    0.00053524
     atom    8 type  2   force =     0.00053524    0.00002463    0.00002463
     atom    9 type  2   force =    -0.00053524   -0.00002463   -0.00002463
     atom   10 type  2   force =    -0.00002463   -0.00053524    0.00002463
     atom   11 type  2   force =     0.00002463    0.00053524   -0.00002463

     Total force =     0.001413     Total SCF correction =     0.000001


     Computing stress (Cartesian axis) and pressure

          total   stress  (Ry/bohr**3)                   (kbar)     P=     2998.04
   0.02038028   0.00001089   0.00001089         2998.04        1.60        1.60
   0.00001089   0.02038028  -0.00001089            1.60     2998.04       -1.60
   0.00001089  -0.00001089   0.02038028            1.60       -1.60     2998.04

     Energy error            =      4.8E-06 Ry
     Gradient error          =      5.4E-04 Ry/Bohr
     Cell gradient error     =      2.0E+00 kbar

     number of scf cycles    =  27
     number of bfgs steps    =  25

     enthalpy           old  =     -76.8015961589 Ry
     enthalpy           new  =     -76.8016009734 Ry

     CASE: enthalpy          _new < enthalpy          _old

     new trust radius        =       0.0054598998 bohr
     new conv_thr            =            4.8E-11 Ry

     new unit-cell volume =    168.89183 a.u.^3 (    25.02719 Ang^3 )
     density =      6.48234 g/cm^3

CELL_PARAMETERS (alat=  9.00000000)
  -0.490614449   0.006243524   0.490614449
  -0.006243524   0.490614449   0.490614449
  -0.490614449   0.490614449   0.006243524

ATOMIC_POSITIONS (crystal)
Sr               0.0000000000       -0.0000000000        0.0000000000
H                0.2544795385        0.2544795385        0.2544795385
H                0.7455204615        0.7455204615        0.7455204615
H                0.3778525778        0.3778525778        0.3778525778
H                0.6221474222        0.6221474222        0.6221474222
H                0.3774775358        0.3774775358        0.8532932275
H                0.6225224642        0.6225224642        0.1467067725
H                0.3774775358        0.8532932275        0.3774775358
H                0.6225224642        0.1467067725        0.6225224642
H                0.8532932275        0.3774775358        0.3774775358
H                0.1467067725        0.6225224642        0.6225224642



     Writing config-only to output data dir ./out/srh10.save/ :
     XML data file
     NEW-OLD atomic charge density approx. for the potential
     New effective cutoffs (rho, wfc):  680.97   85.25

     total cpu time spent up to now is      813.3 secs

     per-process dynamical memory:    51.5 Mb

     Self-consistent Calculation

     iteration #  1     ecut=    80.00 Ry     beta= 0.30
     Davidson diagonalization with overlap
     ethr =  1.00E-06,  avg # of iterations =  2.0

     Threshold (ethr) on eigenvalues was too large:
     Diagonalizing with lowered threshold

     Davidson diagonalization with overlap
     ethr =  2.62E-08,  avg # of iterations =  1.5

     total cpu time spent up to now is      820.1 secs

     total energy              =     -80.24591770 Ry
     estimated scf accuracy    <       0.00000543 Ry

     iteration #  2     ecut=    80.00 Ry     beta= 0.30
     Davidson diagonalization with overlap
     ethr =  2.71E-08,  avg # of iterations =  1.0

     total cpu time spent up to now is      823.0 secs

     total energy              =     -80.24591726 Ry
     estimated scf accuracy    <       0.00000229 Ry

     iteration #  3     ecut=    80.00 Ry     beta= 0.30
     Davidson diagonalization with overlap
     ethr =  1.14E-08,  avg # of iterations =  1.2

     total cpu time spent up to now is      826.0 secs

     total energy              =     -80.24591734 Ry
     estimated scf accuracy    <       0.00000009 Ry

     iteration #  4     ecut=    80.00 Ry     beta= 0.30
     Davidson diagonalization with overlap
     ethr =  4.66E-10,  avg # of iterations =  2.0

     total cpu time spent up to now is      829.2 secs

     total energy              =     -80.24591735 Ry
     estimated scf accuracy    <          4.9E-10 Ry

     iteration #  5     ecut=    80.00 Ry     beta= 0.30
     Davidson diagonalization with overlap
     ethr =  2.46E-12,  avg # of iterations =  2.4

     total cpu time spent up to now is      832.9 secs

     total energy              =     -80.24591735 Ry
     estimated scf accuracy    <          8.2E-11 Ry

     iteration #  6     ecut=    80.00 Ry     beta= 0.30
     Davidson diagonalization with overlap
     ethr =  4.11E-13,  avg # of iterations =  2.0

     total cpu time spent up to now is      836.3 secs

     End of self-consistent calculation

     Number of k-points >= 100: set verbosity='high' to print the bands.

     the Fermi energy is    19.0608 ev

!    total energy              =     -80.24591735 Ry
     estimated scf accuracy    <          6.8E-12 Ry
     smearing contrib. (-TS)   =      -0.00025761 Ry
     internal energy E=F+TS    =     -80.24565974 Ry

     The total energy is F=E-TS. E is the sum of the following terms:
     one-electron contribution =      23.31692409 Ry
     hartree contribution      =       4.13925401 Ry
     xc contribution           =     -27.74098170 Ry
     ewald contribution        =     -79.96085614 Ry

     convergence has been achieved in   6 iterations

     Forces acting on atoms (cartesian axes, Ry/au):

     atom    1 type  1   force =     0.00000000    0.00000000    0.00000000
     atom    2 type  2   force =    -0.00010491    0.00010491    0.00010491
     atom    3 type  2   force =     0.00010491   -0.00010491   -0.00010491
     atom    4 type  2   force =     0.00012548   -0.00012548   -0.00012548
     atom    5 type  2   force =    -0.00012548    0.00012548    0.00012548
     atom    6 type  2   force =    -0.00001516    0.00001516   -0.00050704
     atom    7 type  2   force =     0.00001516   -0.00001516    0.00050704
     atom    8 type  2   force =     0.00050704    0.00001516    0.00001516
     atom    9 type  2   force =    -0.00050704   -0.00001516   -0.00001516
     atom   10 type  2   force =    -0.00001516   -0.00050704    0.00001516
     atom   11 type  2   force =     0.00001516    0.00050704   -0.00001516

     Total force =     0.001306     Total SCF correction =     0.000001


     Computing stress (Cartesian axis) and pressure

          total   stress  (Ry/bohr**3)                   (kbar)     P=     2998.06
   0.02038037   0.00001166   0.00001166         2998.06        1.72        1.72
   0.00001166   0.02038037  -0.00001166            1.72     2998.06       -1.72
   0.00001166  -0.00001166   0.02038037            1.72       -1.72     2998.06

     Energy error            =      6.4E-06 Ry
     Gradient error          =      5.1E-04 Ry/Bohr
     Cell gradient error     =      1.9E+00 kbar

     number of scf cycles    =  28
     number of bfgs steps    =  26

     enthalpy           old  =     -76.8016009734 Ry
     enthalpy           new  =     -76.8016074097 Ry

     CASE: enthalpy          _new < enthalpy          _old

     new trust radius        =       0.0081942708 bohr
     new conv_thr            =            5.1E-11 Ry

     new unit-cell volume =    168.90046 a.u.^3 (    25.02847 Ang^3 )
     density =      6.48201 g/cm^3

CELL_PARAMETERS (alat=  9.00000000)
  -0.490799481   0.006592412   0.490799481
  -0.006592412   0.490799481   0.490799481
  -0.490799481   0.490799481   0.006592412

ATOMIC_POSITIONS (crystal)
Sr               0.0000000000       -0.0000000000        0.0000000000
H                0.2550118700        0.2550118700        0.2550118700
H                0.7449881300        0.7449881300        0.7449881300
H                0.3777713500        0.3777713500        0.3777713500
H                0.6222286500        0.6222286500        0.6222286500
H                0.3770844193        0.3770844193        0.8533218283
H                0.6229155807        0.6229155807        0.1466781717
H                0.3770844193        0.8533218283        0.3770844193
H                0.6229155807        0.1466781717        0.6229155807
H                0.8533218283        0.3770844193        0.3770844193
H                0.1466781717        0.6229155807        0.6229155807



     Writing config-only to output data dir ./out/srh10.save/ :
     XML data file
     NEW-OLD atomic charge density approx. for the potential
     New effective cutoffs (rho, wfc):  681.41   85.30

     total cpu time spent up to now is      838.1 secs

     per-process dynamical memory:    51.5 Mb

     Self-consistent Calculation

     iteration #  1     ecut=    80.00 Ry     beta= 0.30
     Davidson diagonalization with overlap
     ethr =  1.00E-06,  avg # of iterations =  2.2

     Threshold (ethr) on eigenvalues was too large:
     Diagonalizing with lowered threshold

     Davidson diagonalization with overlap
     ethr =  6.05E-08,  avg # of iterations =  1.3

     total cpu time spent up to now is      845.0 secs

     total energy              =     -80.24610130 Ry
     estimated scf accuracy    <       0.00001252 Ry

     iteration #  2     ecut=    80.00 Ry     beta= 0.30
     Davidson diagonalization with overlap
     ethr =  6.26E-08,  avg # of iterations =  1.0

     total cpu time spent up to now is      847.9 secs

     total energy              =     -80.24610029 Ry
     estimated scf accuracy    <       0.00000536 Ry

     iteration #  3     ecut=    80.00 Ry     beta= 0.30
     Davidson diagonalization with overlap
     ethr =  2.68E-08,  avg # of iterations =  1.1

     total cpu time spent up to now is      850.8 secs

     total energy              =     -80.24610047 Ry
     estimated scf accuracy    <       0.00000019 Ry

     iteration #  4     ecut=    80.00 Ry     beta= 0.30
     Davidson diagonalization with overlap
     ethr =  9.50E-10,  avg # of iterations =  2.0

     total cpu time spent up to now is      854.1 secs

     total energy              =     -80.24610049 Ry
     estimated scf accuracy    <          9.7E-10 Ry

     iteration #  5     ecut=    80.00 Ry     beta= 0.30
     Davidson diagonalization with overlap
     ethr =  4.86E-12,  avg # of iterations =  2.4

     total cpu time spent up to now is      857.8 secs

     total energy              =     -80.24610049 Ry
     estimated scf accuracy    <          2.1E-10 Ry

     iteration #  6     ecut=    80.00 Ry     beta= 0.30
     Davidson diagonalization with overlap
     ethr =  1.04E-12,  avg # of iterations =  2.0

     total cpu time spent up to now is      861.2 secs

     End of self-consistent calculation

     Number of k-points >= 100: set verbosity='high' to print the bands.

     the Fermi energy is    19.0637 ev

!    total energy              =     -80.24610049 Ry
     estimated scf accuracy    <          1.5E-11 Ry
     smearing contrib. (-TS)   =      -0.00025182 Ry
     internal energy E=F+TS    =     -80.24584867 Ry

     The total energy is F=E-TS. E is the sum of the following terms:
     one-electron contribution =      23.31207112 Ry
     hartree contribution      =       4.14079270 Ry
     xc contribution           =     -27.74122950 Ry
     ewald contribution        =     -79.95748300 Ry

     convergence has been achieved in   6 iterations

     Forces acting on atoms (cartesian axes, Ry/au):

     atom    1 type  1   force =    -0.00000000   -0.00000000   -0.00000000
     atom    2 type  2   force =     0.00000448   -0.00000448   -0.00000448
     atom    3 type  2   force =    -0.00000448    0.00000448    0.00000448
     atom    4 type  2   force =     0.00012262   -0.00012262   -0.00012262
     atom    5 type  2   force =    -0.00012262    0.00012262    0.00012262
     atom    6 type  2   force =    -0.00000693    0.00000693   -0.00038458
     atom    7 type  2   force =     0.00000693   -0.00000693    0.00038458
     atom    8 type  2   force =     0.00038458    0.00000693    0.00000693
     atom    9 type  2   force =    -0.00038458   -0.00000693   -0.00000693
     atom   10 type  2   force =    -0.00000693   -0.00038458    0.00000693
     atom   11 type  2   force =     0.00000693    0.00038458   -0.00000693

     Total force =     0.000989     Total SCF correction =     0.000002


     Computing stress (Cartesian axis) and pressure

          total   stress  (Ry/bohr**3)                   (kbar)     P=     2998.45
   0.02038308   0.00001002   0.00001002         2998.45        1.47        1.47
   0.00001002   0.02038308  -0.00001002            1.47     2998.45       -1.47
   0.00001002  -0.00001002   0.02038308            1.47       -1.47     2998.45

     Energy error            =      7.1E-06 Ry
     Gradient error          =      3.8E-04 Ry/Bohr
     Cell gradient error     =      1.5E+00 kbar

     number of scf cycles    =  29
     number of bfgs steps    =  27

     enthalpy           old  =     -76.8016074097 Ry
     enthalpy           new  =     -76.8016144717 Ry

     CASE: enthalpy          _new < enthalpy          _old

     new trust radius        =       0.0070375187 bohr
     new conv_thr            =            3.8E-11 Ry

     new unit-cell volume =    168.89858 a.u.^3 (    25.02819 Ang^3 )
     density =      6.48208 g/cm^3

CELL_PARAMETERS (alat=  9.00000000)
  -0.490925475   0.006844564   0.490925475
  -0.006844564   0.490925475   0.490925475
  -0.490925475   0.490925475   0.006844564

ATOMIC_POSITIONS (crystal)
Sr               0.0000000000       -0.0000000000        0.0000000000
H                0.2554687218        0.2554687218        0.2554687218
H                0.7445312782        0.7445312782        0.7445312782
H                0.3777029539        0.3777029539        0.3777029539
H                0.6222970461        0.6222970461        0.6222970461
H                0.3767039481        0.3767039481        0.8533983149
H                0.6232960519        0.6232960519        0.1466016851
H                0.3767039481        0.8533983149        0.3767039481
H                0.6232960519        0.1466016851        0.6232960519
H                0.8533983149        0.3767039481        0.3767039481
H                0.1466016851        0.6232960519        0.6232960519



     Writing config-only to output data dir ./out/srh10.save/ :
     XML data file
     NEW-OLD atomic charge density approx. for the potential
     New effective cutoffs (rho, wfc):  681.75   85.35

     total cpu time spent up to now is      863.0 secs

     per-process dynamical memory:    51.5 Mb

     Self-consistent Calculation

     iteration #  1     ecut=    80.00 Ry     beta= 0.30
     Davidson diagonalization with overlap
     ethr =  1.00E-06,  avg # of iterations =  2.0

     Threshold (ethr) on eigenvalues was too large:
     Diagonalizing with lowered threshold

     Davidson diagonalization with overlap
     ethr =  4.43E-08,  avg # of iterations =  1.5

     total cpu time spent up to now is      869.9 secs

     total energy              =     -80.24606568 Ry
     estimated scf accuracy    <       0.00000918 Ry

     iteration #  2     ecut=    80.00 Ry     beta= 0.30
     Davidson diagonalization with overlap
     ethr =  4.59E-08,  avg # of iterations =  1.0

     total cpu time spent up to now is      872.8 secs

     total energy              =     -80.24606495 Ry
     estimated scf accuracy    <       0.00000401 Ry

     iteration #  3     ecut=    80.00 Ry     beta= 0.30
     Davidson diagonalization with overlap
     ethr =  2.01E-08,  avg # of iterations =  1.0

     total cpu time spent up to now is      875.7 secs

     total energy              =     -80.24606507 Ry
     estimated scf accuracy    <       0.00000011 Ry

     iteration #  4     ecut=    80.00 Ry     beta= 0.30
     Davidson diagonalization with overlap
     ethr =  5.56E-10,  avg # of iterations =  2.1

     total cpu time spent up to now is      879.1 secs

     total energy              =     -80.24606509 Ry
     estimated scf accuracy    <          6.5E-10 Ry

     iteration #  5     ecut=    80.00 Ry     beta= 0.30
     Davidson diagonalization with overlap
     ethr =  3.26E-12,  avg # of iterations =  2.4

     total cpu time spent up to now is      882.6 secs

     total energy              =     -80.24606509 Ry
     estimated scf accuracy    <          1.8E-10 Ry

     iteration #  6     ecut=    80.00 Ry     beta= 0.30
     Davidson diagonalization with overlap
     ethr =  8.81E-13,  avg # of iterations =  2.0

     total cpu time spent up to now is      885.9 secs

     End of self-consistent calculation

     Number of k-points >= 100: set verbosity='high' to print the bands.

     the Fermi energy is    19.0668 ev

!    total energy              =     -80.24606509 Ry
     estimated scf accuracy    <          1.0E-11 Ry
     smearing contrib. (-TS)   =      -0.00024349 Ry
     internal energy E=F+TS    =     -80.24582160 Ry

     The total energy is F=E-TS. E is the sum of the following terms:
     one-electron contribution =      23.30991234 Ry
     hartree contribution      =       4.14187935 Ry
     xc contribution           =     -27.74164281 Ry
     ewald contribution        =     -79.95597048 Ry

     convergence has been achieved in   6 iterations

     Forces acting on atoms (cartesian axes, Ry/au):

     atom    1 type  1   force =     0.00000000    0.00000000    0.00000000
     atom    2 type  2   force =     0.00007140   -0.00007140   -0.00007140
     atom    3 type  2   force =    -0.00007140    0.00007140    0.00007140
     atom    4 type  2   force =     0.00007363   -0.00007363   -0.00007363
     atom    5 type  2   force =    -0.00007363    0.00007363    0.00007363
     atom    6 type  2   force =     0.00000875   -0.00000875   -0.00015009
     atom    7 type  2   force =    -0.00000875    0.00000875    0.00015009
     atom    8 type  2   force =     0.00015009   -0.00000875   -0.00000875
     atom    9 type  2   force =    -0.00015009    0.00000875    0.00000875
     atom   10 type  2   force =     0.00000875   -0.00015009   -0.00000875
     atom   11 type  2   force =    -0.00000875    0.00015009    0.00000875

     Total force =     0.000446     Total SCF correction =     0.000001


     Computing stress (Cartesian axis) and pressure

          total   stress  (Ry/bohr**3)                   (kbar)     P=     2999.29
   0.02038874   0.00000511   0.00000511         2999.29        0.75        0.75
   0.00000511   0.02038874  -0.00000511            0.75     2999.29       -0.75
   0.00000511  -0.00000511   0.02038874            0.75       -0.75     2999.29

     Energy error            =      2.9E-06 Ry
     Gradient error          =      1.5E-04 Ry/Bohr
     Cell gradient error     =      7.5E-01 kbar

     number of scf cycles    =  30
     number of bfgs steps    =  28

     enthalpy           old  =     -76.8016144717 Ry
     enthalpy           new  =     -76.8016173756 Ry

     CASE: enthalpy          _new < enthalpy          _old

     new trust radius        =       0.0003424143 bohr
     new conv_thr            =            1.5E-11 Ry

     new unit-cell volume =    168.89131 a.u.^3 (    25.02711 Ang^3 )
     density =      6.48236 g/cm^3

CELL_PARAMETERS (alat=  9.00000000)
  -0.490895358   0.006798961   0.490895358
  -0.006798961   0.490895358   0.490895358
  -0.490895358   0.490895358   0.006798961

ATOMIC_POSITIONS (crystal)
Sr               0.0000000000       -0.0000000000        0.0000000000
H                0.2554465048        0.2554465048        0.2554465048
H                0.7445534952        0.7445534952        0.7445534952
H                0.3777010957        0.3777010957        0.3777010957
H                0.6222989043        0.6222989043        0.6222989043
H                0.3766904546        0.3766904546        0.8534231698
H                0.6233095454        0.6233095454        0.1465768302
H                0.3766904546        0.8534231698        0.3766904546
H                0.6233095454        0.1465768302        0.6233095454
H                0.8534231698        0.3766904546        0.3766904546
H                0.1465768302        0.6233095454        0.6233095454



     Writing config-only to output data dir ./out/srh10.save/ :
     XML data file
     NEW-OLD atomic charge density approx. for the potential
     New effective cutoffs (rho, wfc):  681.70   85.34

     total cpu time spent up to now is      887.8 secs

     per-process dynamical memory:    51.5 Mb

     Self-consistent Calculation

     iteration #  1     ecut=    80.00 Ry     beta= 0.30
     Davidson diagonalization with overlap
     ethr =  1.00E-06,  avg # of iterations =  2.0

     Threshold (ethr) on eigenvalues was too large:
     Diagonalizing with lowered threshold

     Davidson diagonalization with overlap
     ethr =  2.25E-10,  avg # of iterations =  2.4

     total cpu time spent up to now is      894.5 secs

     total energy              =     -80.24591708 Ry
     estimated scf accuracy    <       0.00000005 Ry

     iteration #  2     ecut=    80.00 Ry     beta= 0.30
     Davidson diagonalization with overlap
     ethr =  2.67E-10,  avg # of iterations =  1.0

     total cpu time spent up to now is      897.4 secs

     total energy              =     -80.24591708 Ry
     estimated scf accuracy    <       0.00000001 Ry

     iteration #  3     ecut=    80.00 Ry     beta= 0.30
     Davidson diagonalization with overlap
     ethr =  7.22E-11,  avg # of iterations =  2.0

     total cpu time spent up to now is      900.9 secs

     total energy              =     -80.24591708 Ry
     estimated scf accuracy    <          5.6E-10 Ry

     iteration #  4     ecut=    80.00 Ry     beta= 0.30
     Davidson diagonalization with overlap
     ethr =  2.80E-12,  avg # of iterations =  2.0

     total cpu time spent up to now is      904.0 secs

     total energy              =     -80.24591708 Ry
     estimated scf accuracy    <          5.6E-11 Ry

     iteration #  5     ecut=    80.00 Ry     beta= 0.30
     Davidson diagonalization with overlap
     ethr =  2.82E-13,  avg # of iterations =  2.1

     total cpu time spent up to now is      907.4 secs

     End of self-consistent calculation

     Number of k-points >= 100: set verbosity='high' to print the bands.

     the Fermi energy is    19.0674 ev

!    total energy              =     -80.24591708 Ry
     estimated scf accuracy    <          2.1E-12 Ry
     smearing contrib. (-TS)   =      -0.00024399 Ry
     internal energy E=F+TS    =     -80.24567309 Ry

     The total energy is F=E-TS. E is the sum of the following terms:
     one-electron contribution =      23.31171330 Ry
     hartree contribution      =       4.14159802 Ry
     xc contribution           =     -27.74177474 Ry
     ewald contribution        =     -79.95720967 Ry

     convergence has been achieved in   5 iterations

     Forces acting on atoms (cartesian axes, Ry/au):

     atom    1 type  1   force =     0.00000000    0.00000000    0.00000000
     atom    2 type  2   force =     0.00004062   -0.00004062   -0.00004062
     atom    3 type  2   force =    -0.00004062    0.00004062    0.00004062
     atom    4 type  2   force =     0.00004996   -0.00004996   -0.00004996
     atom    5 type  2   force =    -0.00004996    0.00004996    0.00004996
     atom    6 type  2   force =     0.00001415   -0.00001415   -0.00006498
     atom    7 type  2   force =    -0.00001415    0.00001415    0.00006498
     atom    8 type  2   force =     0.00006498   -0.00001415   -0.00001415
     atom    9 type  2   force =    -0.00006498    0.00001415    0.00001415
     atom   10 type  2   force =     0.00001415   -0.00006498   -0.00001415
     atom   11 type  2   force =    -0.00001415    0.00006498    0.00001415

     Total force =     0.000229     Total SCF correction =     0.000001


     Computing stress (Cartesian axis) and pressure

          total   stress  (Ry/bohr**3)                   (kbar)     P=     2999.62
   0.02039102   0.00000281   0.00000281         2999.62        0.41        0.41
   0.00000281   0.02039102  -0.00000281            0.41     2999.62       -0.41
   0.00000281  -0.00000281   0.02039102            0.41       -0.41     2999.62

     Energy error            =      3.5E-07 Ry
     Gradient error          =      6.5E-05 Ry/Bohr
     Cell gradient error     =      4.1E-01 kbar

     bfgs converged in  31 scf cycles and  29 bfgs steps
     (criteria: energy <  1.0E-06 Ry, force <  1.0E-04 Ry/Bohr, cell <  5.0E-01 kbar)

     End of BFGS Geometry Optimization

     Final enthalpy           =     -76.8016177297 Ry

     File ./out/srh10.bfgs deleted, as requested
Begin final coordinates
     new unit-cell volume =    168.89131 a.u.^3 (    25.02711 Ang^3 )
     density =      6.48236 g/cm^3

CELL_PARAMETERS (alat=  9.00000000)
  -0.490895358   0.006798961   0.490895358
  -0.006798961   0.490895358   0.490895358
  -0.490895358   0.490895358   0.006798961

ATOMIC_POSITIONS (crystal)
Sr               0.0000000000       -0.0000000000        0.0000000000
H                0.2554465048        0.2554465048        0.2554465048
H                0.7445534952        0.7445534952        0.7445534952
H                0.3777010957        0.3777010957        0.3777010957
H                0.6222989043        0.6222989043        0.6222989043
H                0.3766904546        0.3766904546        0.8534231698
H                0.6233095454        0.6233095454        0.1465768302
H                0.3766904546        0.8534231698        0.3766904546
H                0.6233095454        0.1465768302        0.6233095454
H                0.8534231698        0.3766904546        0.3766904546
H                0.1465768302        0.6233095454        0.6233095454
End final coordinates



     Writing config-only to output data dir ./out/srh10.save/ :
     XML data file

     Final scf calculation at the relaxed structure.
     The G-vectors are recalculated for the final unit cell
     Results may differ from those at the preceding step.

     Parallelization info
     --------------------
     sticks:   dense  smooth     PW     G-vecs:    dense   smooth      PW
     Min         170      85     25                 4614     1635     273
     Max         171      86     26                 4617     1637     277
     Sum        1707     851    257                46157    16355    2747

     Using Slab Decomposition



     bravais-lattice index     =            2
     lattice parameter (alat)  =       9.0000  a.u.
     unit-cell volume          =     168.8913 (a.u.)^3
     number of atoms/cell      =           11
     number of atomic types    =            2
     number of electrons       =        20.00
     number of Kohn-Sham states=           14
     kinetic-energy cutoff     =      80.0000  Ry
     charge density cutoff     =     640.0000  Ry
     scf convergence threshold =      1.5E-11
     mixing beta               =       0.3000
     number of iterations used =            8  plain     mixing
     press convergence thresh. =      5.0E-01
     Exchange-correlation= PBE
                           (   1   4   3   4   0   0   0)

     celldm(1)=   9.000000  celldm(2)=   0.000000  celldm(3)=   0.000000
     celldm(4)=   0.000000  celldm(5)=   0.000000  celldm(6)=   0.000000

     crystal axes: (cart. coord. in units of alat)
               a(1) = (  -0.490895   0.006799   0.490895 )  
               a(2) = (  -0.006799   0.490895   0.490895 )  
               a(3) = (  -0.490895   0.490895   0.006799 )  

     reciprocal axes: (cart. coord. in units 2 pi/alat)
               b(1) = ( -1.025749 -1.039956  1.025749 )  
               b(2) = (  1.039956  1.025749  1.025749 )  
               b(3) = ( -1.025749  1.025749 -1.039956 )  


     PseudoPot. # 1 for Sr read from file:
     ./pseudo/Sr.pbe-spn-rrkjus_psl.1.0.0.UPF
     MD5 check sum: 062293b6b65f9744728f4999ca8ab72f
     Pseudo is Ultrasoft + core correction, Zval = 10.0
     Generated using &quot;atomic&quot; code by A. Dal Corso  v.6.2.2
     Using radial grid of 1221 points,  6 beta functions with: 
                l(1) =   0
                l(2) =   0
                l(3) =   1
                l(4) =   1
                l(5) =   2
                l(6) =   2
     Q(r) pseudized with 0 coefficients 


     PseudoPot. # 2 for H  read from file:
     ./pseudo/H.pbe-rrkjus_psl.1.0.0.UPF
     MD5 check sum: 3f4114867bd07edc7f1424d066fc1888
     Pseudo is Ultrasoft, Zval =  1.0
     Generated using &quot;atomic&quot; code by A. Dal Corso  v.6.3MaX
     Using radial grid of  929 points,  2 beta functions with: 
                l(1) =   0
                l(2) =   0
     Q(r) pseudized with 0 coefficients 


     atomic species   valence    mass     pseudopotential
     Sr               10.00    87.62000     Sr( 1.00)
     H                 1.00     1.00800     H ( 1.00)

     12 Sym. Ops., with inversion, found



   Cartesian axes

     site n.     atom                  positions (alat units)
         1        Sr     tau(   1) = (  -0.0000000  -0.0000000  -0.0000000  )
         2        H      tau(   2) = (  -0.2525318   0.2525318   0.2525318  )
         3        H      tau(   3) = (  -0.7360579   0.7360579   0.7360579  )
         4        H      tau(   4) = (  -0.3733914   0.3733914   0.3733914  )
         5        H      tau(   5) = (  -0.6151983   0.6151983   0.6151983  )
         6        H      tau(   6) = (  -0.6064182   0.6064182   0.3756336  )
         7        H      tau(   7) = (  -0.3821715   0.3821715   0.6129561  )
         8        H      tau(   8) = (  -0.3756336   0.6064182   0.6064182  )
         9        H      tau(   9) = (  -0.6129561   0.3821715   0.3821715  )
        10        H      tau(  10) = (  -0.6064182   0.3756336   0.6064182  )
        11        H      tau(  11) = (  -0.3821715   0.6129561   0.3821715  )

     number of k points=   189  Methfessel-Paxton smearing, width (Ry)=  0.0200

     Number of k-points >= 100: set verbosity='high' to print them.

     Dense  grid:    46157 G-vectors     FFT dimensions: (  54,  54,  54)

     Smooth grid:    16355 G-vectors     FFT dimensions: (  36,  36,  36)

     Estimated max dynamical RAM per process >      34.98 MB

     Estimated total dynamical RAM >     349.82 MB

     Initial potential from superposition of free atoms

     starting charge      19.9923, renormalised to      20.0000
     Starting wfcs are   18 randomized atomic wfcs

     total cpu time spent up to now is      910.9 secs

     per-process dynamical memory:    51.5 Mb

     Self-consistent Calculation

     iteration #  1     ecut=    80.00 Ry     beta= 0.30
     Davidson diagonalization with overlap
     c_bands:  1 eigenvalues not converged
     c_bands:  1 eigenvalues not converged
     c_bands:  1 eigenvalues not converged
     c_bands:  1 eigenvalues not converged
     c_bands:  1 eigenvalues not converged
     c_bands:  1 eigenvalues not converged
     c_bands:  1 eigenvalues not converged
     c_bands:  1 eigenvalues not converged
     c_bands:  1 eigenvalues not converged
     c_bands:  1 eigenvalues not converged
     c_bands:  1 eigenvalues not converged
     c_bands:  1 eigenvalues not converged
     c_bands:  1 eigenvalues not converged
     c_bands:  1 eigenvalues not converged
     c_bands:  1 eigenvalues not converged
     c_bands:  1 eigenvalues not converged
     c_bands:  1 eigenvalues not converged
     c_bands:  1 eigenvalues not converged
     c_bands:  2 eigenvalues not converged
     c_bands:  2 eigenvalues not converged
     c_bands:  2 eigenvalues not converged
     c_bands:  1 eigenvalues not converged
     c_bands:  1 eigenvalues not converged
     c_bands:  1 eigenvalues not converged
     c_bands:  1 eigenvalues not converged
     c_bands:  1 eigenvalues not converged
     c_bands:  1 eigenvalues not converged
     c_bands:  1 eigenvalues not converged
     c_bands:  1 eigenvalues not converged
     c_bands:  1 eigenvalues not converged
     c_bands:  1 eigenvalues not converged
     c_bands:  1 eigenvalues not converged
     c_bands:  1 eigenvalues not converged
     c_bands:  1 eigenvalues not converged
     ethr =  1.00E-06,  avg # of iterations = 16.9

     total cpu time spent up to now is      922.7 secs

     total energy              =     -80.25678876 Ry
     estimated scf accuracy    <       0.21856777 Ry

     iteration #  2     ecut=    80.00 Ry     beta= 0.30
     Davidson diagonalization with overlap
     ethr =  1.09E-03,  avg # of iterations =  1.0

     total cpu time spent up to now is      925.4 secs

     total energy              =     -80.23556674 Ry
     estimated scf accuracy    <       0.06620113 Ry

     iteration #  3     ecut=    80.00 Ry     beta= 0.30
     Davidson diagonalization with overlap
     ethr =  3.31E-04,  avg # of iterations =  2.3

     total cpu time spent up to now is      929.0 secs

     total energy              =     -80.24554184 Ry
     estimated scf accuracy    <       0.00382006 Ry

     iteration #  4     ecut=    80.00 Ry     beta= 0.30
     Davidson diagonalization with overlap
     ethr =  1.91E-05,  avg # of iterations =  2.5

     total cpu time spent up to now is      932.2 secs

     total energy              =     -80.24579476 Ry
     estimated scf accuracy    <       0.00033585 Ry

     iteration #  5     ecut=    80.00 Ry     beta= 0.30
     Davidson diagonalization with overlap
     c_bands:  1 eigenvalues not converged
     ethr =  1.68E-06,  avg # of iterations =  3.5

     total cpu time spent up to now is      936.0 secs

     total energy              =     -80.24584701 Ry
     estimated scf accuracy    <       0.00001242 Ry

     iteration #  6     ecut=    80.00 Ry     beta= 0.30
     Davidson diagonalization with overlap
     ethr =  6.21E-08,  avg # of iterations =  2.0

     total cpu time spent up to now is      939.1 secs

     total energy              =     -80.24584869 Ry
     estimated scf accuracy    <       0.00000060 Ry

     iteration #  7     ecut=    80.00 Ry     beta= 0.30
     Davidson diagonalization with overlap
     ethr =  2.99E-09,  avg # of iterations =  1.2

     total cpu time spent up to now is      941.9 secs

     total energy              =     -80.24584851 Ry
     estimated scf accuracy    <       0.00000048 Ry

     iteration #  8     ecut=    80.00 Ry     beta= 0.30
     Davidson diagonalization with overlap
     ethr =  2.42E-09,  avg # of iterations =  2.0

     total cpu time spent up to now is      945.4 secs

     total energy              =     -80.24584861 Ry
     estimated scf accuracy    <          9.7E-09 Ry

     iteration #  9     ecut=    80.00 Ry     beta= 0.30
     Davidson diagonalization with overlap
     ethr =  4.86E-11,  avg # of iterations =  2.2

     total cpu time spent up to now is      948.7 secs

     total energy              =     -80.24584860 Ry
     estimated scf accuracy    <          5.4E-09 Ry

     iteration # 10     ecut=    80.00 Ry     beta= 0.30
     Davidson diagonalization with overlap
     ethr =  2.72E-11,  avg # of iterations =  2.0

     total cpu time spent up to now is      951.7 secs

     total energy              =     -80.24584861 Ry
     estimated scf accuracy    <          5.7E-10 Ry

     iteration # 11     ecut=    80.00 Ry     beta= 0.30
     Davidson diagonalization with overlap
     ethr =  2.84E-12,  avg # of iterations =  2.1

     total cpu time spent up to now is      955.2 secs

     End of self-consistent calculation

     Number of k-points >= 100: set verbosity='high' to print the bands.

     the Fermi energy is    19.0674 ev

!    total energy              =     -80.24584861 Ry
     estimated scf accuracy    <          9.5E-12 Ry
     smearing contrib. (-TS)   =      -0.00024398 Ry
     internal energy E=F+TS    =     -80.24560462 Ry

     The total energy is F=E-TS. E is the sum of the following terms:
     one-electron contribution =      23.31182583 Ry
     hartree contribution      =       4.14158098 Ry
     xc contribution           =     -27.74180176 Ry
     ewald contribution        =     -79.95720967 Ry

     convergence has been achieved in  11 iterations

     Forces acting on atoms (cartesian axes, Ry/au):

     atom    1 type  1   force =     0.00000000    0.00000000    0.00000000
     atom    2 type  2   force =     0.00004093   -0.00004093   -0.00004093
     atom    3 type  2   force =    -0.00004093    0.00004093    0.00004093
     atom    4 type  2   force =     0.00005430   -0.00005430   -0.00005430
     atom    5 type  2   force =    -0.00005430    0.00005430    0.00005430
     atom    6 type  2   force =     0.00001158   -0.00001158   -0.00007139
     atom    7 type  2   force =    -0.00001158    0.00001158    0.00007139
     atom    8 type  2   force =     0.00007139   -0.00001158   -0.00001158
     atom    9 type  2   force =    -0.00007139    0.00001158    0.00001158
     atom   10 type  2   force =     0.00001158   -0.00007139   -0.00001158
     atom   11 type  2   force =    -0.00001158    0.00007139    0.00001158

     Total force =     0.000245     Total SCF correction =     0.000002


     Computing stress (Cartesian axis) and pressure

          total   stress  (Ry/bohr**3)                   (kbar)     P=     2999.85
   0.02039258   0.00000289   0.00000289         2999.85        0.42        0.42
   0.00000289   0.02039258  -0.00000289            0.42     2999.85       -0.42
   0.00000289  -0.00000289   0.02039258            0.42       -0.42     2999.85


     Writing all to output data dir ./out/srh10.save/ :
     XML data file, charge density, pseudopotentials, collected wavefunctions

     init_run     :      3.83s CPU      4.14s WALL (       2 calls)
     electrons    :    824.94s CPU    894.18s WALL (      32 calls)
     update_pot   :      0.68s CPU      0.74s WALL (      30 calls)
     forces       :      8.85s CPU      9.99s WALL (      32 calls)
     stress       :     40.30s CPU     44.68s WALL (      32 calls)

     Called by init_run:
     wfcinit      :      2.64s CPU      2.87s WALL (       2 calls)
     potinit      :      0.48s CPU      0.51s WALL (       2 calls)
     hinit0       :      0.53s CPU      0.57s WALL (       2 calls)

     Called by electrons:
     c_bands      :    687.67s CPU    745.06s WALL (     244 calls)
     sum_band     :    126.59s CPU    137.54s WALL (     244 calls)
     v_of_rho     :      3.61s CPU      4.02s WALL (     267 calls)
     newd         :      7.71s CPU      8.17s WALL (     267 calls)
     mix_rho      :      0.33s CPU      0.38s WALL (     244 calls)

     Called by c_bands:
     init_us_2    :     19.91s CPU     21.62s WALL (  104706 calls)
     cegterg      :    661.29s CPU    716.20s WALL (   46116 calls)

     Called by *egterg:
     cdiaghg      :     52.84s CPU     57.14s WALL (  150442 calls)
     h_psi        :    533.99s CPU    575.87s WALL (  158191 calls)
     s_psi        :     11.30s CPU     12.37s WALL (  158191 calls)
     g_psi        :      3.23s CPU      3.49s WALL (  111697 calls)

     Called by h_psi:
     h_psi:calbec :     23.32s CPU     25.52s WALL (  158191 calls)
     vloc_psi     :    495.87s CPU    534.45s WALL (  158191 calls)
                                        0.00s GPU  (  158191 calls)
     add_vuspsi   :     11.77s CPU     12.76s WALL (  158191 calls)

     General routines
     calbec       :     47.51s CPU     52.77s WALL (  307123 calls)
     fft          :      2.52s CPU      2.92s WALL (    4246 calls)
     ffts         :      0.52s CPU      0.56s WALL (     511 calls)
     fftw         :    526.66s CPU    570.03s WALL ( 3972656 calls)
     interpolate  :      0.63s CPU      0.68s WALL (     267 calls)

     Parallel routines

     PWSCF        :  14m41.99s CPU  15m57.62s WALL


   This run was terminated on:   3:31:17  15Jun2026            

=------------------------------------------------------------------------------=
   JOB DONE.
=------------------------------------------------------------------------------=
