
     Program PWSCF v.7.5 starts on 15Jun2026 at 13:49: 3 

     This program is part of the open-source Quantum ESPRESSO suite
     for quantum simulation of materials; please cite
         "P. Giannozzi et al., J. Phys.:Condens. Matter 21 395502 (2009);
         "P. Giannozzi et al., J. Phys.:Condens. Matter 29 465901 (2017);
         "P. Giannozzi et al., J. Chem. Phys. 152 154105 (2020);
          URL http://www.quantum-espresso.org", 
     in publications or presentations arising from this work. More details at
     http://www.quantum-espresso.org/quote

     Parallel version (MPI & OpenMP), running on      32 processor cores
     Number of MPI processes:                32
     Threads/MPI process:                     1

     MPI processes distributed on     1 nodes
     701494 MiB available memory on the printing compute node when the environment starts

     Reading input from bands_sparse.in

     Current dimensions of program PWSCF are:
     Max number of different atomic species (ntypx) = 10
     Max number of k-points (npk) =  40000
     Max angular momentum in pseudopotentials (lmaxx) =  4

     Atomic positions and unit cell read from directory:
     ./out/mosn.save/


     K-points division:     npool     =       2
     R & G space division:  proc/nbgrp/npool/nimage =      16
     Subspace diagonalization in iterative solution of the eigenvalue problem:
     a serial algorithm will be used


     Parallelization info
     --------------------
     sticks:   dense  smooth     PW     G-vecs:    dense   smooth      PW
     Min         173     173     47                 6289     6289     887
     Max         174     174     49                 6292     6292     889
     Sum        2773    2773    757               100651   100651   14213

     Using Slab Decomposition



     bravais-lattice index     =            4
     lattice parameter (alat)  =      10.5940  a.u.
     unit-cell volume          =     872.9488 (a.u.)^3
     number of atoms/cell      =            6
     number of atomic types    =            2
     number of electrons       =        84.00
     number of Kohn-Sham states=           50
     kinetic-energy cutoff     =      90.0000  Ry
     charge density cutoff     =     360.0000  Ry
     Exchange-correlation= PBE
                           (   1   4   3   4   0   0   0)

     celldm(1)=  10.593960  celldm(2)=   0.000000  celldm(3)=   0.847780
     celldm(4)=   0.000000  celldm(5)=   0.000000  celldm(6)=   0.000000

     crystal axes: (cart. coord. in units of alat)
               a(1) = (   1.000000   0.000000   0.000000 )  
               a(2) = (  -0.500000   0.866025   0.000000 )  
               a(3) = (   0.000000   0.000000   0.847780 )  

     reciprocal axes: (cart. coord. in units 2 pi/alat)
               b(1) = (  1.000000  0.577350 -0.000000 )  
               b(2) = (  0.000000  1.154701  0.000000 )  
               b(3) = (  0.000000 -0.000000  1.179551 )  


     PseudoPot. # 1 for Mo read from file:
     ./pseudo/Mo_ONCV_PBE_sr.upf
     MD5 check sum: 2665c9f4159700498d9a5f7573bd8e9f
     Pseudo is Norm-conserving, Zval = 14.0
     Generated using ONCVPSP code by D. R. Hamann
     Using radial grid of  602 points,  6 beta functions with: 
                l(1) =   0
                l(2) =   0
                l(3) =   1
                l(4) =   1
                l(5) =   2
                l(6) =   2

     PseudoPot. # 2 for Sn read from file:
     ./pseudo/Sn_ONCV_PBE_sr.upf
     MD5 check sum: 6680f7ee4d83b53e0fcd4167fcb72813
     Pseudo is Norm-conserving, Zval = 14.0
     Generated using ONCVPSP code by D. R. Hamann
     Using radial grid of  602 points,  6 beta functions with: 
                l(1) =   0
                l(2) =   0
                l(3) =   1
                l(4) =   1
                l(5) =   2
                l(6) =   2

     atomic species   valence    mass     pseudopotential
     Mo               14.00    95.95000     Mo( 1.00)
     Sn               14.00   118.71000     Sn( 1.00)

     Starting magnetic structure 
     atomic species   magnetization
     Mo              0.000
     Sn              0.000

     24 Sym. Ops., with inversion, found



   Cartesian axes

     site n.     atom                  positions (alat units)
         1        Mo     tau(   1) = (   0.5000000   0.0000000   0.0000000  )
         2        Mo     tau(   2) = (  -0.2500000   0.4330127   0.0000000  )
         3        Mo     tau(   3) = (   0.2500000   0.4330127   0.0000000  )
         4        Sn     tau(   4) = (   0.0000000   0.0000000   0.0000000  )
         5        Sn     tau(   5) = (  -0.0000005   0.5773506   0.4238900  )
         6        Sn     tau(   6) = (   0.5000005   0.2886748   0.4238900  )

     number of k points=    49  Methfessel-Paxton smearing, width (Ry)=  0.0200
                       cart. coord. in units 2pi/alat
        k(    1) = (   0.0000000   0.0000000   0.0000000), wk =   0.0204082
        k(    2) = (   0.0277750   0.0481077   0.0000000), wk =   0.0204082
        k(    3) = (   0.0555500   0.0962154   0.0000000), wk =   0.0204082
        k(    4) = (   0.0833250   0.1443231   0.0000000), wk =   0.0204082
        k(    5) = (   0.1111000   0.1924308   0.0000000), wk =   0.0204082
        k(    6) = (   0.1388750   0.2405386   0.0000000), wk =   0.0204082
        k(    7) = (   0.1666500   0.2886463   0.0000000), wk =   0.0204082
        k(    8) = (   0.1944250   0.3367540   0.0000000), wk =   0.0204082
        k(    9) = (   0.2222000   0.3848617   0.0000000), wk =   0.0204082
        k(   10) = (   0.2499750   0.4329694   0.0000000), wk =   0.0204082
        k(   11) = (   0.2777500   0.4810771   0.0000000), wk =   0.0204082
        k(   12) = (   0.3055250   0.5291848   0.0000000), wk =   0.0204082
        k(   13) = (   0.3333000   0.5772925   0.0000000), wk =   0.0204082
        k(   14) = (   0.3471917   0.5532411   0.0000000), wk =   0.0204082
        k(   15) = (   0.3610833   0.5291896   0.0000000), wk =   0.0204082
        k(   16) = (   0.3749750   0.5051382   0.0000000), wk =   0.0204082
        k(   17) = (   0.3888667   0.4810867   0.0000000), wk =   0.0204082
        k(   18) = (   0.4027583   0.4570353   0.0000000), wk =   0.0204082
        k(   19) = (   0.4166500   0.4329838   0.0000000), wk =   0.0204082
        k(   20) = (   0.4305417   0.4089324   0.0000000), wk =   0.0204082
        k(   21) = (   0.4444333   0.3848809   0.0000000), wk =   0.0204082
        k(   22) = (   0.4583250   0.3608295   0.0000000), wk =   0.0204082
        k(   23) = (   0.4722167   0.3367780   0.0000000), wk =   0.0204082
        k(   24) = (   0.4861083   0.3127266   0.0000000), wk =   0.0204082
        k(   25) = (   0.5000000   0.2886751   0.0000000), wk =   0.0204082
        k(   26) = (   0.4583333   0.2646189   0.0000000), wk =   0.0204082
        k(   27) = (   0.4166667   0.2405626   0.0000000), wk =   0.0204082
        k(   28) = (   0.3750000   0.2165064   0.0000000), wk =   0.0204082
        k(   29) = (   0.3333333   0.1924501   0.0000000), wk =   0.0204082
        k(   30) = (   0.2916667   0.1683938   0.0000000), wk =   0.0204082
        k(   31) = (   0.2500000   0.1443376   0.0000000), wk =   0.0204082
        k(   32) = (   0.2083333   0.1202813   0.0000000), wk =   0.0204082
        k(   33) = (   0.1666667   0.0962250   0.0000000), wk =   0.0204082
        k(   34) = (   0.1250000   0.0721688   0.0000000), wk =   0.0204082
        k(   35) = (   0.0833333   0.0481125   0.0000000), wk =   0.0204082
        k(   36) = (   0.0416667   0.0240563   0.0000000), wk =   0.0204082
        k(   37) = (   0.0000000   0.0000000   0.0000000), wk =   0.0204082
        k(   38) = (   0.0000000   0.0000000   0.0491480), wk =   0.0204082
        k(   39) = (   0.0000000   0.0000000   0.0982959), wk =   0.0204082
        k(   40) = (   0.0000000   0.0000000   0.1474439), wk =   0.0204082
        k(   41) = (   0.0000000   0.0000000   0.1965919), wk =   0.0204082
        k(   42) = (   0.0000000   0.0000000   0.2457399), wk =   0.0204082
        k(   43) = (   0.0000000   0.0000000   0.2948878), wk =   0.0204082
        k(   44) = (   0.0000000   0.0000000   0.3440358), wk =   0.0204082
        k(   45) = (   0.0000000   0.0000000   0.3931838), wk =   0.0204082
        k(   46) = (   0.0000000   0.0000000   0.4423317), wk =   0.0204082
        k(   47) = (   0.0000000   0.0000000   0.4914797), wk =   0.0204082
        k(   48) = (   0.0000000   0.0000000   0.5406277), wk =   0.0204082
        k(   49) = (   0.0000000   0.0000000   0.5897756), wk =   0.0204082

     Dense  grid:   100651 G-vectors     FFT dimensions: (  64,  64,  60)

     Estimated max dynamical RAM per process >      14.61 MB

     Estimated total dynamical RAM >     467.68 MB
     Generating pointlists ...
     new r_m :   0.2063 (alat units)  2.1850 (a.u.) for type    1
     new r_m :   0.2063 (alat units)  2.1850 (a.u.) for type    2

     The potential is recalculated from file :
     ./out/mosn.save/charge-density

     Starting wfcs are random

     Band Structure Calculation
     Davidson diagonalization with overlap

     ethr =  1.19E-09,  avg # of iterations = 25.7

     total cpu time spent up to now is       56.7 secs

     End of band structure calculation

 ------ SPIN UP ------------


          k = 0.0000 0.0000 0.0000 ( 12531 PWs)   bands (ev):

   -45.3845 -45.2593 -45.2592 -19.9793 -19.6516 -19.6516 -19.5398 -19.4093
   -19.4092 -19.1573 -18.9871 -18.9870  -5.9197  -5.8496  -5.8496  -5.8319
    -5.8179  -5.8179  -5.8079  -5.8079  -5.7749  -5.7749  -5.7688  -5.7688
    -5.7421  -5.7421  -5.7297   5.3742   7.7913  10.3881  11.0685  11.5458
    11.7666  11.7667  13.1144  13.1144  13.3124  13.8589  13.8590  13.8880
    13.8880  16.6074  16.6074  16.7119  17.0291  17.0292  17.6408  17.7748
    19.0553  19.0554

          k = 0.0278 0.0481 0.0000 ( 12536 PWs)   bands (ev):

   -45.3839 -45.2599 -45.2592 -19.9751 -19.6511 -19.6488 -19.5392 -19.4100
   -19.4092 -19.1594 -18.9925 -18.9882  -5.9194  -5.8507  -5.8501  -5.8321
    -5.8185  -5.8183  -5.8072  -5.8070  -5.7741  -5.7739  -5.7692  -5.7689
    -5.7417  -5.7413  -5.7299   5.3899   7.7994  10.2925  11.0783  11.5642
    11.7532  11.8347  13.1211  13.1241  13.3031  13.8407  13.8602  13.8703
    13.8952  16.5927  16.6184  16.6936  17.0216  17.0277  17.6757  17.8161
    19.0315  19.0730

          k = 0.0555 0.0962 0.0000 ( 12552 PWs)   bands (ev):

   -45.3820 -45.2618 -45.2592 -19.9627 -19.6496 -19.6400 -19.5372 -19.4119
   -19.4092 -19.1658 -19.0084 -18.9917  -5.9185  -5.8539  -5.8516  -5.8325
    -5.8198  -5.8194  -5.8053  -5.8047  -5.7717  -5.7708  -5.7705  -5.7691
    -5.7406  -5.7390  -5.7303   5.4366   7.8231  10.0563  11.1076  11.6150
    11.7166  11.9840  13.1394  13.1570  13.2757  13.7876  13.7900  13.9043
    13.9142  16.5517  16.6366  16.6456  16.9992  17.0362  17.7668  17.9277
    18.9804  19.1056

          k = 0.0833 0.1443 0.0000 ( 12568 PWs)   bands (ev):

   -45.3790 -45.2649 -45.2592 -19.9427 -19.6470 -19.6253 -19.5341 -19.4152
   -19.4092 -19.1769 -19.0336 -18.9974  -5.9170  -5.8589  -5.8536  -5.8327
    -5.8211  -5.8206  -5.8029  -5.8018  -5.7725  -5.7696  -5.7683  -5.7663
    -5.7390  -5.7355  -5.7310   5.5141   7.8593   9.7537  11.1558  11.6211
    11.7330  12.1316  13.1580  13.2194  13.2317  13.7044  13.7144  13.9382
    13.9607  16.4889  16.5411  16.6793  16.9624  17.0747  17.8727  18.0846
    18.9452  19.0956

          k = 0.1111 0.1924 0.0000 ( 12590 PWs)   bands (ev):

   -45.3748 -45.2691 -45.2592 -19.9161 -19.6433 -19.6046 -19.5298 -19.4196
   -19.4092 -19.1938 -19.0659 -19.0054  -5.9152  -5.8651  -5.8556  -5.8328
    -5.8221  -5.8215  -5.8003  -5.7987  -5.7752  -5.7701  -5.7647  -5.7611
    -5.7369  -5.7317  -5.7312   5.6213   7.9033   9.4267  11.2218  11.5375
    11.8510  12.2339  13.1448  13.1721  13.3080  13.5995  13.6907  13.9599
    14.0389  16.4005  16.4143  16.7144  16.9120  17.1519  17.9430  18.2628
    18.9533  19.0178

          k = 0.1389 0.2405 0.0000 ( 12596 PWs)   bands (ev):

   -45.3697 -45.2743 -45.2592 -19.8842 -19.6385 -19.5776 -19.5245 -19.4250
   -19.4093 -19.2184 -19.1018 -19.0155  -5.9132  -5.8717  -5.8571  -5.8328
    -5.8227  -5.8221  -5.7979  -5.7956  -5.7784  -5.7707  -5.7611  -5.7556
    -5.7349  -5.7318  -5.7266   5.7571   7.9480   9.0962  11.3044  11.4417
    12.0028  12.2851  13.0706  13.0958  13.4009  13.4851  13.7624  13.9769
    14.1380  16.2656  16.2710  16.7520  16.8495  17.2681  17.9601  18.4418
    18.9051  18.9807

          k = 0.1666 0.2886 0.0000 ( 12596 PWs)   bands (ev):

   -45.3638 -45.2803 -45.2592 -19.8483 -19.6324 -19.5445 -19.5183 -19.4313
   -19.4093 -19.2534 -19.1368 -19.0276  -5.9112  -5.8782  -5.8580  -5.8329
    -5.8228  -5.8223  -5.7959  -5.7926  -5.7819  -5.7714  -5.7578  -5.7507
    -5.7342  -5.7300  -5.7221   5.9200   7.9845   8.7730  11.3589  11.4018
    12.1781  12.2972  12.9507  12.9987  13.3762  13.4662  13.9178  13.9944
    14.2568  16.0861  16.1035  16.7768  16.7960  17.4207  17.9454  18.6038
    18.7349  18.9736

          k = 0.1944 0.3368 0.0000 ( 12614 PWs)   bands (ev):

   -45.3572 -45.2870 -45.2592 -19.8101 -19.6250 -19.5115 -19.5056 -19.4383
   -19.4093 -19.2996 -19.1679 -19.0414  -5.9094  -5.8841  -5.8580  -5.8333
    -5.8224  -5.8221  -5.7951  -5.7899  -5.7848  -5.7720  -5.7551  -5.7472
    -5.7335  -5.7271  -5.7183   6.1077   8.0033   8.4638  11.3117  11.5118
    12.2826  12.3691  12.8111  12.8778  13.2861  13.4841  14.0138  14.1268
    14.3932  15.8557  15.9350  16.6964  16.8513  17.6059  17.9229  18.5331
    18.7339  18.8999

          k = 0.2222 0.3849 0.0000 ( 12622 PWs)   bands (ev):

   -45.3502 -45.2941 -45.2592 -19.7706 -19.6164 -19.5043 -19.4620 -19.4457
   -19.4094 -19.3545 -19.1955 -19.0566  -5.9080  -5.8891  -5.8569  -5.8341
    -5.8215  -5.8214  -5.7968  -5.7877  -5.7859  -5.7725  -5.7529  -5.7459
    -5.7313  -5.7243  -5.7154   6.3175   7.9972   8.1729  11.3187  11.6322
    12.2481  12.5450  12.6893  12.7373  13.2195  13.4625  14.0142  14.3647
    14.5445  15.6167  15.7662  16.6119  16.9236  17.8197  17.9041  18.3312
    18.7567  18.8226

          k = 0.2500 0.4330 0.0000 ( 12608 PWs)   bands (ev):

   -45.3430 -45.3013 -45.2592 -19.7307 -19.6068 -19.4967 -19.4533 -19.4154
   -19.4139 -19.4094 -19.2209 -19.0725  -5.9073  -5.8928  -5.8550  -5.8355
    -5.8203  -5.8201  -5.8006  -5.7861  -5.7855  -5.7728  -5.7513  -5.7461
    -5.7281  -5.7218  -5.7137   6.5457   7.9032   7.9642  11.3905  11.7600
    12.1961  12.4733  12.5865  12.8177  13.1737  13.4256  13.9602  14.6066
    14.7064  15.4146  15.6019  16.5285  17.0183  17.8913  18.0581  18.1478
    18.5596  18.8669

          k = 0.2777 0.4811 0.0000 ( 12608 PWs)   bands (ev):

   -45.3358 -45.3086 -45.2592 -19.6909 -19.5970 -19.4892 -19.4736 -19.4609
   -19.4094 -19.3686 -19.2455 -19.0880  -5.9071  -5.8951  -5.8521  -5.8377
    -5.8189  -5.8184  -5.8052  -5.7851  -5.7848  -5.7728  -5.7501  -5.7470
    -5.7248  -5.7198  -5.7133   6.7861   7.6569   7.9101  11.5286  11.8922
    12.1272  12.3177  12.4349  13.0292  13.1448  13.3956  13.8313  14.8254
    14.8722  15.2746  15.4460  16.4533  17.1377  17.8820  17.9994  18.3164
    18.3382  18.8713

          k = 0.3055 0.5292 0.0000 ( 12596 PWs)   bands (ev):

   -45.3287 -45.3156 -45.2593 -19.6513 -19.5914 -19.5262 -19.4819 -19.4682
   -19.4094 -19.3261 -19.2698 -19.1006  -5.9074  -5.8962  -5.8485  -5.8406
    -5.8171  -5.8163  -5.8099  -5.7845  -5.7844  -5.7727  -5.7493  -5.7480
    -5.7223  -5.7180  -5.7141   7.0272   7.4357   7.8499  11.7254  12.0252
    12.0426  12.1566  12.2895  13.1295  13.2392  13.3871  13.6427  14.9954
    15.0319  15.1832  15.3016  16.3969  17.2663  17.8725  17.9020  18.1416
    18.5821  18.8531

          k = 0.3333 0.5773 0.0000 ( 12612 PWs)   bands (ev):

   -45.3222 -45.3221 -45.2593 -19.6122 -19.6122 -19.5475 -19.4751 -19.4750
   -19.4094 -19.2941 -19.2940 -19.1061  -5.9075  -5.8965  -5.8445  -5.8444
    -5.8155  -5.8141  -5.8141  -5.7843  -5.7843  -5.7727  -5.7487  -5.7487
    -5.7214  -5.7160  -5.7160   7.2408   7.2411   7.8165  11.9465  11.9467
    12.0168  12.1552  12.1554  13.1249  13.4032  13.4327  13.4330  15.1051
    15.1053  15.1708  15.1712  16.3742  17.3339  17.8681  17.8682  18.0523
    18.7295  18.9444

          k = 0.3472 0.5532 0.0000 ( 12602 PWs)   bands (ev):

   -45.3252 -45.3191 -45.2593 -19.6335 -19.5928 -19.5448 -19.4782 -19.4719
   -19.4094 -19.3061 -19.2843 -19.1045  -5.9075  -5.8965  -5.8467  -5.8423
    -5.8169  -5.8138  -5.8130  -5.7844  -5.7842  -5.7727  -5.7489  -5.7485
    -5.7216  -5.7172  -5.7148   7.1540   7.3179   7.8303  11.8964  11.9022
    12.0937  12.1146  12.2178  13.1259  13.3218  13.4291  13.5184  15.0622
    15.1116  15.1405  15.2273  16.3809  17.3148  17.8656  17.8768  18.0792
    18.7141  18.8271

          k = 0.3611 0.5292 0.0000 ( 12592 PWs)   bands (ev):

   -45.3281 -45.3162 -45.2593 -19.6559 -19.5736 -19.5390 -19.4812 -19.4689
   -19.4094 -19.3181 -19.2796 -19.0995  -5.9073  -5.8962  -5.8490  -5.8402
    -5.8188  -5.8127  -5.8119  -5.7846  -5.7842  -5.7728  -5.7489  -5.7483
    -5.7221  -5.7185  -5.7137   7.0742   7.3626   7.8766  11.8235  11.8460
    12.0364  12.2525  12.2779  13.1285  13.2210  13.4563  13.5934  15.0139
    15.0566  15.1673  15.2724  16.4018  17.2648  17.8550  17.9020  18.1537
    18.6849  18.7113

          k = 0.3750 0.5051 0.0000 ( 12594 PWs)   bands (ev):

   -45.3308 -45.3136 -45.2593 -19.6778 -19.5544 -19.5317 -19.4840 -19.4661
   -19.4094 -19.3300 -19.2796 -19.0915  -5.9072  -5.8958  -5.8516  -5.8381
    -5.8207  -5.8115  -5.8108  -5.7850  -5.7841  -5.7729  -5.7488  -5.7481
    -5.7230  -5.7199  -5.7127   7.0015   7.3767   7.9534  11.7435  11.7964
    11.9836  12.3349  12.3953  13.1262  13.1325  13.4902  13.6556  14.9598
    15.0060  15.1907  15.3055  16.4375  17.1969  17.8372  17.9426  18.2580
    18.5975  18.6518

          k = 0.3889 0.4811 0.0000 ( 12602 PWs)   bands (ev):

   -45.3332 -45.3111 -45.2592 -19.6981 -19.5355 -19.5237 -19.4866 -19.4635
   -19.4094 -19.3419 -19.2837 -19.0815  -5.9070  -5.8952  -5.8543  -5.8361
    -5.8225  -5.8103  -5.8098  -5.7854  -5.7840  -5.7731  -5.7485  -5.7479
    -5.7240  -5.7213  -5.7117   6.9362   7.3705   8.0496  11.6645  11.7487
    11.9356  12.3883  12.5389  13.0392  13.1374  13.5299  13.7032  14.9001
    14.9602  15.2150  15.3273  16.4870  17.1212  17.8136  17.9965  18.3771
    18.4857  18.6178

          k = 0.4028 0.4570 0.0000 ( 12612 PWs)   bands (ev):

   -45.3354 -45.3089 -45.2592 -19.7167 -19.5167 -19.5151 -19.4889 -19.4612
   -19.4094 -19.3536 -19.2911 -19.0705  -5.9069  -5.8942  -5.8572  -5.8342
    -5.8241  -5.8092  -5.8088  -5.7859  -5.7839  -5.7733  -5.7480  -5.7478
    -5.7253  -5.7226  -5.7108   6.8783   7.3541   8.1540  11.5874  11.7039
    11.8927  12.4374  12.6801  12.9611  13.1429  13.5745  13.7354  14.8360
    14.9191  15.2439  15.3393  16.5484  17.0435  17.7849  18.0612  18.3765
    18.5013  18.5847

          k = 0.4166 0.4330 0.0000 ( 12596 PWs)   bands (ev):

   -45.3374 -45.3070 -45.2592 -19.7331 -19.5063 -19.4981 -19.4909 -19.4591
   -19.4094 -19.3651 -19.3008 -19.0595  -5.9068  -5.8930  -5.8601  -5.8324
    -5.8255  -5.8080  -5.8080  -5.7864  -5.7837  -5.7736  -5.7476  -5.7473
    -5.7268  -5.7239  -5.7100   6.8279   7.3338   8.2584  11.5137  11.6629
    11.8551  12.4816  12.8156  12.8926  13.1486  13.6228  13.7529  14.7690
    14.8832  15.2790  15.3438  16.6186  16.9672  17.7520  18.1334  18.2706
    18.5538  18.6247

          k = 0.4305 0.4089 0.0000 ( 12600 PWs)   bands (ev):

   -45.3391 -45.3053 -45.2592 -19.7473 -19.4972 -19.4927 -19.4798 -19.4574
   -19.4094 -19.3764 -19.3124 -19.0491  -5.9067  -5.8915  -5.8630  -5.8309
    -5.8267  -5.8072  -5.8070  -5.7869  -5.7835  -5.7740  -5.7475  -5.7465
    -5.7284  -5.7251  -5.7094   6.7851   7.3133   8.3572  11.4451  11.6267
    11.8229  12.5203  12.8342  12.9420  13.1541  13.6734  13.7574  14.7013
    14.8524  15.3197  15.3430  16.6937  16.8949  17.7165  18.1695  18.2093
    18.5261  18.7435

          k = 0.4444 0.3849 0.0000 ( 12612 PWs)   bands (ev):

   -45.3404 -45.3039 -45.2592 -19.7591 -19.4941 -19.4881 -19.4619 -19.4559
   -19.4094 -19.3872 -19.3252 -19.0401  -5.9067  -5.8897  -5.8660  -5.8296
    -5.8277  -5.8066  -5.8060  -5.7875  -5.7833  -5.7743  -5.7474  -5.7454
    -5.7300  -5.7261  -5.7088   6.7500   7.2947   8.4457  11.3838  11.5959
    11.7964  12.5528  12.7862  13.0557  13.1592  13.7240  13.7518  14.6355
    14.8270  15.3393  15.3632  16.7696  16.8292  17.6807  18.0753  18.2842
    18.5023  18.8547

          k = 0.4583 0.3608 0.0000 ( 12596 PWs)   bands (ev):

   -45.3415 -45.3028 -45.2592 -19.7684 -19.4953 -19.4793 -19.4547 -19.4445
   -19.4094 -19.3974 -19.3388 -19.0327  -5.9068  -5.8877  -5.8689  -5.8285
    -5.8285  -5.8061  -5.8051  -5.7880  -5.7831  -5.7746  -5.7474  -5.7443
    -5.7317  -5.7269  -5.7084   6.7227   7.2793   8.5199  11.3322  11.5712
    11.7757  12.5788  12.7488  13.1525  13.1635  13.7398  13.7719  14.5752
    14.8070  15.3346  15.4053  16.7728  16.8408  17.6476  17.9916  18.3527
    18.4831  18.9552

          k = 0.4722 0.3368 0.0000 ( 12600 PWs)   bands (ev):

   -45.3423 -45.3020 -45.2592 -19.7750 -19.4961 -19.4712 -19.4539 -19.4281
   -19.4094 -19.4064 -19.3527 -19.0272  -5.9068  -5.8856  -5.8717  -5.8290
    -5.8277  -5.8057  -5.8045  -5.7884  -5.7829  -5.7749  -5.7473  -5.7431
    -5.7333  -5.7275  -5.7081   6.7031   7.2678   8.5760  11.2928  11.5532
    11.7608  12.5976  12.7220  13.1667  13.2280  13.7255  13.8127  14.5252
    14.7927  15.3302  15.4409  16.7289  16.9009  17.6206  17.9236  18.4085
    18.4691  19.0402

          k = 0.4861 0.3127 0.0000 ( 12598 PWs)   bands (ev):

   -45.3428 -45.3016 -45.2592 -19.7790 -19.4966 -19.4650 -19.4534 -19.4138
   -19.4132 -19.4094 -19.3655 -19.0238  -5.9069  -5.8838  -5.8739  -5.8294
    -5.8273  -5.8055  -5.8041  -5.7887  -5.7827  -5.7751  -5.7473  -5.7420
    -5.7346  -5.7279  -5.7079   6.6913   7.2608   8.6110  11.2681  11.5423
    11.7518  12.6091  12.7059  13.1687  13.2769  13.7135  13.8409  14.4913
    14.7841  15.3271  15.4648  16.7008  16.9420  17.6029  17.8780  18.4454
    18.4605  19.1008

          k = 0.5000 0.2887 0.0000 ( 12604 PWs)   bands (ev):

   -45.3429 -45.3014 -45.2592 -19.7804 -19.4967 -19.4626 -19.4532 -19.4158
   -19.4094 -19.4068 -19.3720 -19.0227  -5.9069  -5.8829  -5.8749  -5.8295
    -5.8271  -5.8055  -5.8039  -5.7888  -5.7827  -5.7751  -5.7473  -5.7416
    -5.7351  -5.7280  -5.7078   6.6874   7.2584   8.6229  11.2597  11.5386
    11.7489  12.6129  12.7006  13.1694  13.2940  13.7088  13.8511  14.4792
    14.7812  15.3261  15.4733  16.6911  16.9568  17.5967  17.8618  18.4576
    18.4583  19.1237

          k = 0.4583 0.2646 0.0000 ( 12598 PWs)   bands (ev):

   -45.3443 -45.3000 -45.2592 -19.7832 -19.4982 -19.4913 -19.4518 -19.4340
   -19.4094 -19.3747 -19.3539 -19.0223  -5.9071  -5.8825  -5.8745  -5.8294
    -5.8273  -5.8082  -5.8011  -5.7891  -5.7828  -5.7749  -5.7475  -5.7420
    -5.7351  -5.7282  -5.7084   6.6078   7.3441   8.6197  11.2671  11.5596
    11.7258  12.6393  12.6774  13.1769  13.2948  13.6608  13.8802  14.4572
    14.7331  15.3820  15.5043  16.7125  16.9570  17.6095  17.8167  18.4522
    18.4897  19.0919

          k = 0.4167 0.2406 0.0000 ( 12586 PWs)   bands (ev):

   -45.3479 -45.2964 -45.2592 -19.7917 -19.5322 -19.5019 -19.4641 -19.4480
   -19.4094 -19.3244 -19.3237 -19.0211  -5.9076  -5.8812  -5.8735  -5.8290
    -5.8277  -5.8113  -5.7976  -5.7901  -5.7833  -5.7744  -5.7484  -5.7433
    -5.7352  -5.7287  -5.7101   6.4439   7.5221   8.6157  11.2891  11.6194
    11.6651  12.6100  12.7093  13.1998  13.2964  13.5792  13.9079  14.3972
    14.6253  15.5130  15.5911  16.7677  16.9574  17.6472  17.7093  18.4412
    18.5541  19.0117

          k = 0.3750 0.2165 0.0000 ( 12584 PWs)   bands (ev):

   -45.3528 -45.2914 -45.2592 -19.8065 -19.5679 -19.5070 -19.4949 -19.4429
   -19.4094 -19.2944 -19.2708 -19.0191  -5.9085  -5.8791  -5.8717  -5.8284
    -5.8284  -5.8140  -5.7947  -5.7915  -5.7837  -5.7736  -5.7500  -5.7455
    -5.7352  -5.7296  -5.7128   6.2641   7.7089   8.6305  11.3246  11.5830
    11.7086  12.5066  12.8036  13.2392  13.2966  13.5062  13.8987  14.3133
    14.5006  15.6749  15.7178  16.8340  16.9584  17.5788  17.7069  18.4434
    18.6018  18.9201

          k = 0.3333 0.1925 0.0000 ( 12594 PWs)   bands (ev):

   -45.3582 -45.2860 -45.2592 -19.8272 -19.5957 -19.5245 -19.5126 -19.4372
   -19.4093 -19.2661 -19.2190 -19.0163  -5.9097  -5.8763  -5.8694  -5.8293
    -5.8276  -5.8163  -5.7933  -5.7932  -5.7832  -5.7728  -5.7524  -5.7484
    -5.7349  -5.7307  -5.7162   6.0901   7.8542   8.6980  11.3722  11.4931
    11.8109  12.3831  12.9046  13.2921  13.2968  13.4513  13.8499  14.2216
    14.3770  15.8477  15.8653  16.8837  16.9600  17.4470  17.7806  18.4802
    18.6027  18.8572

          k = 0.2917 0.1684 0.0000 ( 12586 PWs)   bands (ev):

   -45.3636 -45.2805 -45.2592 -19.8524 -19.6157 -19.5522 -19.5182 -19.4315
   -19.4093 -19.2403 -19.1699 -19.0127  -5.9112  -5.8728  -5.8665  -5.8302
    -5.8266  -5.8180  -5.7953  -5.7935  -5.7814  -5.7719  -5.7553  -5.7519
    -5.7347  -5.7319  -5.7203   5.9297   7.9268   8.8469  11.4040  11.4294
    11.8980  12.2655  12.9994  13.2793  13.3731  13.4124  13.7726  14.1357
    14.2618  16.0170  16.0213  16.8959  16.9626  17.3252  17.8538  18.5478
    18.5666  18.8490

          k = 0.2500 0.1443 0.0000 ( 12588 PWs)   bands (ev):

   -45.3687 -45.2754 -45.2592 -19.8799 -19.6293 -19.5772 -19.5234 -19.4261
   -19.4093 -19.2177 -19.1247 -19.0084  -5.9129  -5.8689  -5.8632  -5.8311
    -5.8254  -5.8193  -5.7975  -5.7953  -5.7788  -5.7711  -5.7588  -5.7559
    -5.7352  -5.7325  -5.7248   5.7866   7.9364   9.0674  11.3208  11.4932
    11.9167  12.1984  13.0813  13.2566  13.3777  13.4646  13.6930  14.0636
    14.1583  16.1620  16.1882  16.8671  16.9666  17.2202  17.9094  18.4449
    18.6981  18.8976

          k = 0.2083 0.1203 0.0000 ( 12566 PWs)   bands (ev):

   -45.3733 -45.2707 -45.2592 -19.9069 -19.6383 -19.5991 -19.5282 -19.4212
   -19.4093 -19.1986 -19.0847 -19.0036  -5.9146  -5.8646  -5.8597  -5.8319
    -5.8240  -5.8199  -5.7997  -5.7977  -5.7761  -5.7704  -5.7624  -5.7601
    -5.7366  -5.7320  -5.7292   5.6630   7.9128   9.3288  11.2469  11.5597
    11.8476  12.1868  13.1498  13.2257  13.3256  13.5629  13.6531  14.0077
    14.0687  16.2936  16.3417  16.8108  16.9729  17.1366  17.9308  18.3102
    18.8350  18.9820

          k = 0.1667 0.0962 0.0000 ( 12568 PWs)   bands (ev):

   -45.3772 -45.2667 -45.2592 -19.9313 -19.6441 -19.6176 -19.5322 -19.4171
   -19.4092 -19.1833 -19.0506 -18.9987  -5.9162  -5.8602  -5.8564  -5.8324
    -5.8226  -5.8200  -5.8019  -5.8003  -5.7736  -5.7699  -5.7661  -5.7644
    -5.7383  -5.7334  -5.7314   5.5602   7.8779   9.6062  11.1842  11.6242
    11.7524  12.1547  13.1914  13.2062  13.2538  13.6581  13.6749  13.9655
    13.9941  16.4067  16.4747  16.7456  16.9822  17.0772  17.9036  18.1617
    18.9122  19.0664

          k = 0.1250 0.0722 0.0000 ( 12561 PWs)   bands (ev):

   -45.3803 -45.2635 -45.2592 -19.9516 -19.6478 -19.6323 -19.5355 -19.4137
   -19.4092 -19.1717 -19.0233 -18.9941  -5.9176  -5.8561  -5.8535  -5.8325
    -5.8210  -5.8197  -5.8040  -5.8030  -5.7716  -5.7696  -5.7694  -5.7685
    -5.7398  -5.7370  -5.7307   5.4793   7.8433   9.8804  11.1342  11.6663
    11.6818  12.0674  13.1595  13.1887  13.2513  13.7376  13.7411  13.9333
    13.9353  16.4966  16.5808  16.6867  16.9951  17.0422  17.8299  18.0167
    18.9494  19.1097

          k = 0.0833 0.0481 0.0000 ( 12535 PWs)   bands (ev):

   -45.3826 -45.2612 -45.2592 -19.9668 -19.6500 -19.6430 -19.5379 -19.4113
   -19.4092 -19.1636 -19.0033 -18.9904  -5.9188  -5.8527  -5.8513  -5.8324
    -5.8195  -5.8190  -5.8059  -5.8054  -5.7724  -5.7718  -5.7701  -5.7691
    -5.7410  -5.7397  -5.7302   5.4211   7.8153  10.1287  11.0979  11.6006
    11.7273  11.9400  13.1348  13.1449  13.2847  13.8051  13.8105  13.8930
    13.9091  16.5599  16.6426  16.6554  17.0104  17.0284  17.7386  17.8921
    18.9936  19.0986

          k = 0.0417 0.0241 0.0000 ( 12537 PWs)   bands (ev):

   -45.3840 -45.2597 -45.2592 -19.9762 -19.6512 -19.6495 -19.5393 -19.4098
   -19.4092 -19.1589 -18.9912 -18.9879  -5.9195  -5.8504  -5.8500  -5.8321
    -5.8184  -5.8182  -5.8074  -5.8072  -5.7743  -5.7741  -5.7691  -5.7689
    -5.7418  -5.7415  -5.7299   5.3859   7.7974  10.3154  11.0759  11.5597
    11.7566  11.8188  13.1195  13.1216  13.3054  13.8453  13.8669  13.8675
    13.8935  16.5960  16.6161  16.6982  17.0238  17.0276  17.6672  17.8060
    19.0370  19.0689

          k = 0.0000 0.0000 0.0000 ( 12531 PWs)   bands (ev):

   -45.3845 -45.2593 -45.2592 -19.9793 -19.6516 -19.6516 -19.5398 -19.4093
   -19.4092 -19.1573 -18.9871 -18.9870  -5.9197  -5.8496  -5.8496  -5.8319
    -5.8179  -5.8179  -5.8079  -5.8079  -5.7749  -5.7749  -5.7688  -5.7688
    -5.7421  -5.7421  -5.7297   5.3742   7.7913  10.3881  11.0685  11.5458
    11.7666  11.7667  13.1144  13.1144  13.3124  13.8589  13.8590  13.8880
    13.8880  16.6074  16.6074  16.7119  17.0291  17.0292  17.6408  17.7748
    19.0553  19.0554

          k = 0.0000 0.0000 0.0491 ( 12531 PWs)   bands (ev):

   -45.3845 -45.2593 -45.2592 -19.9793 -19.6517 -19.6516 -19.5400 -19.4093
   -19.4092 -19.1573 -18.9871 -18.9870  -5.9196  -5.8495  -5.8495  -5.8317
    -5.8178  -5.8178  -5.8084  -5.8084  -5.7751  -5.7751  -5.7685  -5.7685
    -5.7420  -5.7420  -5.7301   5.3871   7.7893  10.2820  11.1976  11.5198
    11.7817  11.7818  13.1163  13.1163  13.3024  13.7440  13.7441  14.0013
    14.0013  16.6073  16.6074  16.7103  17.0247  17.0248  17.4691  17.9202
    19.0685  19.0686

          k = 0.0000 0.0000 0.0983 ( 12549 PWs)   bands (ev):

   -45.3845 -45.2593 -45.2592 -19.9791 -19.6517 -19.6516 -19.5404 -19.4092
   -19.4091 -19.1573 -18.9871 -18.9871  -5.9195  -5.8493  -5.8493  -5.8309
    -5.8177  -5.8177  -5.8098  -5.8098  -5.7755  -5.7755  -5.7677  -5.7677
    -5.7417  -5.7417  -5.7312   5.4256   7.7829  10.0742  11.4435  11.4742
    11.8268  11.8268  13.1223  13.1223  13.2753  13.6166  13.6167  14.1241
    14.1241  16.6071  16.6072  16.7056  17.0122  17.0123  17.2243  18.0889
    19.1069  19.1070

          k = 0.0000 0.0000 0.1474 ( 12525 PWs)   bands (ev):

   -45.3845 -45.2593 -45.2592 -19.9787 -19.6517 -19.6516 -19.5410 -19.4091
   -19.4090 -19.1573 -18.9872 -18.9871  -5.9192  -5.8491  -5.8491  -5.8296
    -5.8174  -5.8174  -5.8121  -5.8120  -5.7759  -5.7759  -5.7667  -5.7667
    -5.7414  -5.7414  -5.7330   5.4892   7.7708   9.8546  11.3214  11.8077
    11.9002  11.9003  13.1333  13.1333  13.2385  13.4922  13.4923  14.2413
    14.2414  16.6065  16.6065  16.6981  16.9627  16.9931  16.9932  18.2315
    18.9578  18.9579

          k = 0.0000 0.0000 0.1966 ( 12543 PWs)   bands (ev):

   -45.3845 -45.2593 -45.2592 -19.9783 -19.6518 -19.6517 -19.5418 -19.4090
   -19.4089 -19.1573 -18.9872 -18.9872  -5.9188  -5.8487  -5.8487  -5.8279
    -5.8172  -5.8172  -5.8149  -5.8149  -5.7760  -5.7760  -5.7657  -5.7657
    -5.7410  -5.7410  -5.7354   5.5771   7.7506   9.6474  11.1623  11.9994
    11.9994  12.1728  13.1508  13.1509  13.1998  13.3733  13.3734  14.3510
    14.3510  16.6046  16.6047  16.6883  16.6965  16.9693  16.9694  18.3464
    18.5095  18.5096

          k = 0.0000 0.0000 0.2457 ( 12555 PWs)   bands (ev):

   -45.3844 -45.2593 -45.2592 -19.9778 -19.6518 -19.6517 -19.5428 -19.4089
   -19.4088 -19.1573 -18.9873 -18.9872  -5.9184  -5.8483  -5.8483  -5.8260
    -5.8182  -5.8182  -5.8171  -5.8171  -5.7757  -5.7757  -5.7649  -5.7649
    -5.7406  -5.7406  -5.7381   5.6881   7.7192   9.4600  10.9784  12.1197
    12.1197  12.5603  13.1649  13.1779  13.1780  13.2624  13.2625  14.4514
    14.4515  16.4359  16.6000  16.6000  16.6771  16.9432  16.9433  18.0452
    18.0454  18.4359

          k = 0.0000 0.0000 0.2949 ( 12555 PWs)   bands (ev):

   -45.3844 -45.2593 -45.2592 -19.9773 -19.6519 -19.6518 -19.5438 -19.4088
   -19.4087 -19.1573 -18.9874 -18.9873  -5.9179  -5.8478  -5.8478  -5.8239
    -5.8218  -5.8218  -5.8171  -5.8170  -5.7750  -5.7750  -5.7642  -5.7642
    -5.7410  -5.7402  -5.7402   5.8204   7.6725   9.2953  10.7841  12.2536
    12.2536  12.9646  13.1366  13.1615  13.1616  13.2196  13.2197  14.5413
    14.5414  16.1901  16.5883  16.5884  16.6651  16.9167  16.9168  17.5871
    17.5872  18.5039

          k = 0.0000 0.0000 0.3440 ( 12549 PWs)   bands (ev):

   -45.3844 -45.2593 -45.2592 -19.9768 -19.6519 -19.6518 -19.5449 -19.4087
   -19.4086 -19.1573 -18.9874 -18.9874  -5.9175  -5.8472  -5.8472  -5.8254
    -5.8253  -5.8218  -5.8171  -5.8171  -5.7739  -5.7739  -5.7638  -5.7638
    -5.7439  -5.7398  -5.7398   5.9718   7.6066   9.1548  10.5940  12.3897
    12.3897  13.0727  13.0728  13.1157  13.2837  13.2838  13.3803  14.6194
    14.6195  15.9672  16.5547  16.5548  16.6532  16.8917  16.8917  17.1628
    17.1629  18.5548

          k = 0.0000 0.0000 0.3932 ( 12579 PWs)   bands (ev):

   -45.3844 -45.2593 -45.2592 -19.9763 -19.6520 -19.6519 -19.5458 -19.4086
   -19.4085 -19.1573 -18.9875 -18.9874  -5.9170  -5.8465  -5.8465  -5.8288
    -5.8287  -5.8199  -5.8173  -5.8173  -5.7725  -5.7725  -5.7637  -5.7637
    -5.7466  -5.7396  -5.7396   6.1392   7.5178   9.0392  10.4219  12.5130
    12.5130  12.9976  12.9977  13.1015  13.3791  13.3792  13.7998  14.6848
    14.6849  15.7740  16.4334  16.4335  16.6421  16.8492  16.8493  16.8694
    16.8695  18.3836

          k = 0.0000 0.0000 0.4423 ( 12573 PWs)   bands (ev):

   -45.3844 -45.2593 -45.2592 -19.9759 -19.6520 -19.6519 -19.5467 -19.4085
   -19.4084 -19.1573 -18.9875 -18.9875  -5.9167  -5.8458  -5.8458  -5.8318
    -5.8318  -5.8182  -5.8175  -5.8175  -5.7710  -5.7710  -5.7639  -5.7639
    -5.7489  -5.7393  -5.7393   6.3186   7.4043   8.9489  10.2786  12.6098
    12.6098  12.9377  12.9378  13.0927  13.5092  13.5093  14.2105  14.7366
    14.7366  15.6167  16.1536  16.1537  16.6327  16.7313  16.7313  16.8510
    16.8511  17.9328

          k = 0.0000 0.0000 0.4915 ( 12561 PWs)   bands (ev):

   -45.3843 -45.2593 -45.2592 -19.9755 -19.6520 -19.6520 -19.5473 -19.4084
   -19.4083 -19.1573 -18.9876 -18.9875  -5.9164  -5.8451  -5.8451  -5.8343
    -5.8343  -5.8177  -5.8177  -5.8169  -5.7694  -5.7694  -5.7644  -5.7644
    -5.7507  -5.7392  -5.7392   6.5038   7.2681   8.8843  10.1721  12.6748
    12.6748  12.8942  12.8943  13.0880  13.6601  13.6603  14.5881  14.7741
    14.7741  15.5003  15.8461  15.8462  16.6255  16.6995  16.6995  16.8373
    16.8374  17.5252

          k = 0.0000 0.0000 0.5406 ( 12574 PWs)   bands (ev):

   -45.3843 -45.2593 -45.2592 -19.9753 -19.6521 -19.6520 -19.5477 -19.4084
   -19.4082 -19.1573 -18.9876 -18.9876  -5.9162  -5.8444  -5.8444  -5.8360
    -5.8360  -5.8178  -5.8178  -5.8161  -5.7679  -5.7679  -5.7653  -5.7653
    -5.7518  -5.7391  -5.7391   6.6828   7.1191   8.8455  10.1068  12.7106
    12.7107  12.8677  12.8678  13.0858  13.7930  13.7931  14.7968  14.7969
    14.8807  15.4287  15.6133  15.6134  16.6210  16.6890  16.6891  16.8289
    16.8290  17.2138

          k = 0.0000 0.0000 0.5898 ( 12604 PWs)   bands (ev):

   -45.3843 -45.2593 -45.2592 -19.9753 -19.6521 -19.6520 -19.5478 -19.4083
   -19.4082 -19.1573 -18.9876 -18.9876  -5.9162  -5.8442  -5.8442  -5.8367
    -5.8367  -5.8179  -5.8179  -5.8158  -5.7667  -5.7667  -5.7663  -5.7663
    -5.7522  -5.7391  -5.7390   6.7915   7.0204   8.8325  10.0849  12.7219
    12.7220  12.8588  12.8589  13.0852  13.8487  13.8489  14.8044  14.8045
    14.9983  15.4045  15.5240  15.5241  16.6194  16.6863  16.6864  16.8261
    16.8261  17.0899

 ------ SPIN DOWN ----------


          k = 0.0000 0.0000 0.0000 ( 12531 PWs)   bands (ev):

   -45.3845 -45.2593 -45.2592 -19.9793 -19.6517 -19.6516 -19.5398 -19.4093
   -19.4092 -19.1574 -18.9871 -18.9870  -5.9197  -5.8496  -5.8496  -5.8319
    -5.8179  -5.8179  -5.8079  -5.8079  -5.7749  -5.7749  -5.7688  -5.7688
    -5.7421  -5.7421  -5.7297   5.3742   7.7913  10.3881  11.0685  11.5458
    11.7666  11.7667  13.1144  13.1144  13.3124  13.8589  13.8590  13.8880
    13.8880  16.6074  16.6074  16.7119  17.0291  17.0292  17.6408  17.7748
    19.0553  19.0554

          k = 0.0278 0.0481 0.0000 ( 12536 PWs)   bands (ev):

   -45.3839 -45.2599 -45.2592 -19.9751 -19.6511 -19.6488 -19.5392 -19.4100
   -19.4092 -19.1594 -18.9925 -18.9882  -5.9194  -5.8507  -5.8501  -5.8321
    -5.8185  -5.8183  -5.8072  -5.8070  -5.7741  -5.7739  -5.7692  -5.7689
    -5.7417  -5.7413  -5.7299   5.3899   7.7994  10.2925  11.0783  11.5642
    11.7532  11.8347  13.1211  13.1241  13.3031  13.8407  13.8602  13.8703
    13.8952  16.5927  16.6184  16.6935  17.0217  17.0277  17.6758  17.8161
    19.0315  19.0730

          k = 0.0555 0.0962 0.0000 ( 12552 PWs)   bands (ev):

   -45.3820 -45.2618 -45.2592 -19.9627 -19.6496 -19.6400 -19.5373 -19.4119
   -19.4092 -19.1658 -19.0084 -18.9917  -5.9185  -5.8539  -5.8516  -5.8325
    -5.8198  -5.8194  -5.8053  -5.8047  -5.7717  -5.7708  -5.7705  -5.7691
    -5.7406  -5.7390  -5.7303   5.4366   7.8231  10.0563  11.1076  11.6150
    11.7166  11.9840  13.1394  13.1570  13.2757  13.7876  13.7900  13.9043
    13.9142  16.5517  16.6365  16.6456  16.9992  17.0362  17.7668  17.9277
    18.9804  19.1056

          k = 0.0833 0.1443 0.0000 ( 12568 PWs)   bands (ev):

   -45.3790 -45.2649 -45.2592 -19.9427 -19.6470 -19.6253 -19.5341 -19.4152
   -19.4092 -19.1769 -19.0336 -18.9974  -5.9170  -5.8589  -5.8536  -5.8327
    -5.8211  -5.8206  -5.8029  -5.8018  -5.7725  -5.7696  -5.7683  -5.7663
    -5.7390  -5.7355  -5.7310   5.5141   7.8593   9.7537  11.1558  11.6211
    11.7330  12.1316  13.1580  13.2194  13.2317  13.7044  13.7144  13.9382
    13.9607  16.4889  16.5411  16.6793  16.9624  17.0747  17.8727  18.0846
    18.9452  19.0956

          k = 0.1111 0.1924 0.0000 ( 12590 PWs)   bands (ev):

   -45.3748 -45.2691 -45.2592 -19.9161 -19.6433 -19.6046 -19.5298 -19.4196
   -19.4092 -19.1938 -19.0659 -19.0054  -5.9152  -5.8651  -5.8556  -5.8328
    -5.8221  -5.8215  -5.8003  -5.7987  -5.7752  -5.7701  -5.7647  -5.7611
    -5.7369  -5.7317  -5.7312   5.6213   7.9033   9.4267  11.2218  11.5375
    11.8510  12.2339  13.1448  13.1721  13.3080  13.5995  13.6907  13.9599
    14.0389  16.4005  16.4143  16.7144  16.9120  17.1519  17.9430  18.2628
    18.9533  19.0178

          k = 0.1389 0.2405 0.0000 ( 12596 PWs)   bands (ev):

   -45.3697 -45.2743 -45.2592 -19.8841 -19.6385 -19.5776 -19.5245 -19.4250
   -19.4093 -19.2184 -19.1018 -19.0155  -5.9132  -5.8717  -5.8571  -5.8328
    -5.8227  -5.8221  -5.7979  -5.7956  -5.7784  -5.7707  -5.7611  -5.7556
    -5.7349  -5.7318  -5.7266   5.7571   7.9480   9.0962  11.3044  11.4417
    12.0028  12.2851  13.0706  13.0958  13.4009  13.4851  13.7624  13.9769
    14.1380  16.2656  16.2710  16.7520  16.8495  17.2681  17.9601  18.4418
    18.9051  18.9807

          k = 0.1666 0.2886 0.0000 ( 12596 PWs)   bands (ev):

   -45.3638 -45.2803 -45.2592 -19.8483 -19.6324 -19.5445 -19.5183 -19.4313
   -19.4093 -19.2534 -19.1368 -19.0276  -5.9112  -5.8782  -5.8580  -5.8329
    -5.8228  -5.8223  -5.7959  -5.7926  -5.7819  -5.7714  -5.7578  -5.7507
    -5.7342  -5.7300  -5.7221   5.9200   7.9845   8.7730  11.3589  11.4018
    12.1781  12.2972  12.9507  12.9987  13.3762  13.4662  13.9178  13.9944
    14.2568  16.0861  16.1034  16.7768  16.7960  17.4207  17.9454  18.6038
    18.7349  18.9736

          k = 0.1944 0.3368 0.0000 ( 12614 PWs)   bands (ev):

   -45.3572 -45.2870 -45.2592 -19.8101 -19.6250 -19.5115 -19.5056 -19.4383
   -19.4093 -19.2996 -19.1679 -19.0414  -5.9094  -5.8841  -5.8580  -5.8333
    -5.8224  -5.8221  -5.7951  -5.7899  -5.7848  -5.7720  -5.7551  -5.7472
    -5.7335  -5.7271  -5.7183   6.1077   8.0033   8.4638  11.3117  11.5118
    12.2826  12.3691  12.8111  12.8778  13.2861  13.4841  14.0138  14.1268
    14.3932  15.8557  15.9350  16.6964  16.8513  17.6059  17.9229  18.5331
    18.7339  18.8999

          k = 0.2222 0.3849 0.0000 ( 12622 PWs)   bands (ev):

   -45.3502 -45.2941 -45.2592 -19.7706 -19.6164 -19.5043 -19.4620 -19.4457
   -19.4094 -19.3545 -19.1955 -19.0566  -5.9080  -5.8891  -5.8569  -5.8341
    -5.8215  -5.8214  -5.7968  -5.7877  -5.7859  -5.7725  -5.7529  -5.7459
    -5.7313  -5.7243  -5.7154   6.3175   7.9972   8.1729  11.3187  11.6322
    12.2481  12.5450  12.6893  12.7373  13.2195  13.4625  14.0142  14.3647
    14.5445  15.6167  15.7662  16.6119  16.9236  17.8197  17.9041  18.3312
    18.7567  18.8226

          k = 0.2500 0.4330 0.0000 ( 12608 PWs)   bands (ev):

   -45.3430 -45.3013 -45.2592 -19.7307 -19.6068 -19.4967 -19.4533 -19.4154
   -19.4140 -19.4094 -19.2209 -19.0725  -5.9073  -5.8928  -5.8550  -5.8355
    -5.8203  -5.8201  -5.8006  -5.7861  -5.7855  -5.7728  -5.7513  -5.7461
    -5.7281  -5.7218  -5.7137   6.5457   7.9032   7.9642  11.3905  11.7600
    12.1961  12.4733  12.5865  12.8177  13.1737  13.4256  13.9602  14.6066
    14.7063  15.4146  15.6019  16.5285  17.0183  17.8913  18.0581  18.1478
    18.5596  18.8669

          k = 0.2777 0.4811 0.0000 ( 12608 PWs)   bands (ev):

   -45.3358 -45.3086 -45.2592 -19.6908 -19.5970 -19.4892 -19.4736 -19.4609
   -19.4094 -19.3687 -19.2455 -19.0880  -5.9071  -5.8951  -5.8521  -5.8377
    -5.8189  -5.8184  -5.8052  -5.7851  -5.7848  -5.7728  -5.7501  -5.7470
    -5.7248  -5.7198  -5.7133   6.7861   7.6569   7.9101  11.5286  11.8922
    12.1272  12.3177  12.4349  13.0292  13.1448  13.3956  13.8313  14.8254
    14.8722  15.2746  15.4460  16.4533  17.1377  17.8820  17.9994  18.3164
    18.3382  18.8714

          k = 0.3055 0.5292 0.0000 ( 12596 PWs)   bands (ev):

   -45.3287 -45.3156 -45.2593 -19.6513 -19.5914 -19.5262 -19.4819 -19.4682
   -19.4094 -19.3261 -19.2698 -19.1006  -5.9074  -5.8962  -5.8485  -5.8406
    -5.8171  -5.8163  -5.8099  -5.7845  -5.7844  -5.7727  -5.7493  -5.7480
    -5.7223  -5.7180  -5.7141   7.0272   7.4357   7.8499  11.7254  12.0252
    12.0426  12.1566  12.2895  13.1295  13.2392  13.3871  13.6427  14.9954
    15.0319  15.1832  15.3016  16.3969  17.2663  17.8725  17.9020  18.1416
    18.5821  18.8531

          k = 0.3333 0.5773 0.0000 ( 12612 PWs)   bands (ev):

   -45.3222 -45.3221 -45.2593 -19.6122 -19.6122 -19.5475 -19.4751 -19.4750
   -19.4094 -19.2941 -19.2940 -19.1061  -5.9075  -5.8965  -5.8445  -5.8444
    -5.8155  -5.8141  -5.8141  -5.7843  -5.7843  -5.7727  -5.7487  -5.7487
    -5.7214  -5.7160  -5.7160   7.2408   7.2411   7.8165  11.9465  11.9467
    12.0168  12.1552  12.1554  13.1249  13.4032  13.4327  13.4330  15.1051
    15.1053  15.1708  15.1712  16.3743  17.3339  17.8681  17.8682  18.0523
    18.7295  18.9444

          k = 0.3472 0.5532 0.0000 ( 12602 PWs)   bands (ev):

   -45.3252 -45.3191 -45.2593 -19.6335 -19.5928 -19.5448 -19.4782 -19.4719
   -19.4094 -19.3061 -19.2843 -19.1045  -5.9075  -5.8965  -5.8467  -5.8423
    -5.8169  -5.8138  -5.8130  -5.7844  -5.7842  -5.7727  -5.7489  -5.7485
    -5.7216  -5.7172  -5.7148   7.1540   7.3179   7.8303  11.8964  11.9022
    12.0937  12.1146  12.2178  13.1259  13.3218  13.4291  13.5184  15.0622
    15.1116  15.1405  15.2273  16.3809  17.3148  17.8656  17.8768  18.0792
    18.7141  18.8271

          k = 0.3611 0.5292 0.0000 ( 12592 PWs)   bands (ev):

   -45.3281 -45.3162 -45.2593 -19.6559 -19.5735 -19.5390 -19.4812 -19.4689
   -19.4094 -19.3181 -19.2796 -19.0995  -5.9073  -5.8962  -5.8490  -5.8402
    -5.8188  -5.8127  -5.8119  -5.7846  -5.7842  -5.7728  -5.7489  -5.7483
    -5.7221  -5.7185  -5.7137   7.0742   7.3626   7.8766  11.8235  11.8460
    12.0364  12.2525  12.2779  13.1285  13.2210  13.4563  13.5934  15.0139
    15.0566  15.1673  15.2723  16.4018  17.2648  17.8550  17.9020  18.1537
    18.6849  18.7114

          k = 0.3750 0.5051 0.0000 ( 12594 PWs)   bands (ev):

   -45.3308 -45.3136 -45.2593 -19.6777 -19.5544 -19.5317 -19.4840 -19.4661
   -19.4094 -19.3300 -19.2796 -19.0915  -5.9072  -5.8958  -5.8516  -5.8381
    -5.8207  -5.8115  -5.8108  -5.7850  -5.7841  -5.7729  -5.7488  -5.7481
    -5.7230  -5.7199  -5.7127   7.0015   7.3767   7.9534  11.7435  11.7964
    11.9836  12.3349  12.3953  13.1262  13.1325  13.4902  13.6556  14.9598
    15.0060  15.1907  15.3055  16.4375  17.1969  17.8372  17.9426  18.2580
    18.5975  18.6518

          k = 0.3889 0.4811 0.0000 ( 12602 PWs)   bands (ev):

   -45.3332 -45.3111 -45.2592 -19.6981 -19.5355 -19.5237 -19.4866 -19.4635
   -19.4094 -19.3419 -19.2838 -19.0815  -5.9070  -5.8952  -5.8543  -5.8361
    -5.8225  -5.8103  -5.8098  -5.7854  -5.7840  -5.7731  -5.7485  -5.7479
    -5.7240  -5.7213  -5.7117   6.9362   7.3705   8.0496  11.6645  11.7487
    11.9356  12.3883  12.5389  13.0392  13.1374  13.5299  13.7032  14.9001
    14.9601  15.2150  15.3273  16.4870  17.1212  17.8136  17.9965  18.3771
    18.4857  18.6178

          k = 0.4028 0.4570 0.0000 ( 12612 PWs)   bands (ev):

   -45.3354 -45.3089 -45.2592 -19.7167 -19.5167 -19.5151 -19.4889 -19.4612
   -19.4094 -19.3536 -19.2911 -19.0705  -5.9068  -5.8942  -5.8572  -5.8342
    -5.8241  -5.8092  -5.8088  -5.7859  -5.7839  -5.7733  -5.7480  -5.7478
    -5.7253  -5.7226  -5.7108   6.8783   7.3541   8.1540  11.5874  11.7039
    11.8927  12.4374  12.6801  12.9611  13.1429  13.5745  13.7354  14.8360
    14.9191  15.2439  15.3393  16.5484  17.0435  17.7849  18.0612  18.3765
    18.5013  18.5847

          k = 0.4166 0.4330 0.0000 ( 12596 PWs)   bands (ev):

   -45.3374 -45.3070 -45.2592 -19.7331 -19.5063 -19.4981 -19.4909 -19.4591
   -19.4094 -19.3651 -19.3009 -19.0595  -5.9068  -5.8930  -5.8601  -5.8324
    -5.8255  -5.8080  -5.8080  -5.7864  -5.7837  -5.7736  -5.7476  -5.7473
    -5.7268  -5.7239  -5.7100   6.8279   7.3338   8.2584  11.5137  11.6629
    11.8551  12.4816  12.8157  12.8926  13.1486  13.6228  13.7529  14.7690
    14.8831  15.2790  15.3437  16.6186  16.9672  17.7520  18.1334  18.2706
    18.5538  18.6247

          k = 0.4305 0.4089 0.0000 ( 12600 PWs)   bands (ev):

   -45.3391 -45.3053 -45.2592 -19.7473 -19.4972 -19.4927 -19.4798 -19.4574
   -19.4094 -19.3764 -19.3124 -19.0491  -5.9067  -5.8915  -5.8630  -5.8309
    -5.8267  -5.8072  -5.8070  -5.7869  -5.7835  -5.7740  -5.7475  -5.7465
    -5.7284  -5.7251  -5.7094   6.7851   7.3133   8.3572  11.4451  11.6267
    11.8229  12.5203  12.8342  12.9420  13.1541  13.6734  13.7574  14.7013
    14.8524  15.3197  15.3430  16.6937  16.8949  17.7165  18.1695  18.2093
    18.5261  18.7435

          k = 0.4444 0.3849 0.0000 ( 12612 PWs)   bands (ev):

   -45.3404 -45.3039 -45.2592 -19.7591 -19.4941 -19.4881 -19.4619 -19.4559
   -19.4094 -19.3872 -19.3252 -19.0401  -5.9067  -5.8897  -5.8660  -5.8296
    -5.8277  -5.8066  -5.8060  -5.7875  -5.7833  -5.7743  -5.7474  -5.7454
    -5.7300  -5.7261  -5.7088   6.7500   7.2947   8.4457  11.3838  11.5959
    11.7964  12.5528  12.7862  13.0557  13.1592  13.7240  13.7518  14.6355
    14.8269  15.3393  15.3632  16.7696  16.8292  17.6807  18.0754  18.2842
    18.5023  18.8547

          k = 0.4583 0.3608 0.0000 ( 12596 PWs)   bands (ev):

   -45.3415 -45.3028 -45.2592 -19.7684 -19.4953 -19.4793 -19.4547 -19.4445
   -19.4094 -19.3974 -19.3388 -19.0327  -5.9068  -5.8877  -5.8689  -5.8285
    -5.8285  -5.8061  -5.8051  -5.7880  -5.7831  -5.7746  -5.7474  -5.7443
    -5.7317  -5.7269  -5.7084   6.7227   7.2793   8.5199  11.3322  11.5712
    11.7757  12.5788  12.7488  13.1525  13.1635  13.7398  13.7719  14.5752
    14.8070  15.3346  15.4053  16.7728  16.8408  17.6476  17.9916  18.3527
    18.4831  18.9552

          k = 0.4722 0.3368 0.0000 ( 12600 PWs)   bands (ev):

   -45.3423 -45.3020 -45.2592 -19.7750 -19.4961 -19.4712 -19.4539 -19.4281
   -19.4094 -19.4064 -19.3527 -19.0272  -5.9068  -5.8856  -5.8717  -5.8290
    -5.8277  -5.8057  -5.8045  -5.7884  -5.7829  -5.7749  -5.7473  -5.7431
    -5.7333  -5.7275  -5.7081   6.7031   7.2678   8.5760  11.2928  11.5532
    11.7608  12.5976  12.7220  13.1667  13.2280  13.7255  13.8127  14.5252
    14.7927  15.3302  15.4409  16.7289  16.9009  17.6206  17.9236  18.4085
    18.4691  19.0402

          k = 0.4861 0.3127 0.0000 ( 12598 PWs)   bands (ev):

   -45.3428 -45.3016 -45.2592 -19.7790 -19.4966 -19.4650 -19.4534 -19.4138
   -19.4132 -19.4094 -19.3655 -19.0238  -5.9069  -5.8838  -5.8739  -5.8294
    -5.8273  -5.8055  -5.8041  -5.7887  -5.7827  -5.7751  -5.7473  -5.7420
    -5.7346  -5.7279  -5.7079   6.6913   7.2608   8.6110  11.2681  11.5423
    11.7519  12.6091  12.7059  13.1687  13.2769  13.7135  13.8409  14.4913
    14.7841  15.3271  15.4648  16.7008  16.9420  17.6029  17.8780  18.4454
    18.4605  19.1008

          k = 0.5000 0.2887 0.0000 ( 12604 PWs)   bands (ev):

   -45.3429 -45.3014 -45.2592 -19.7804 -19.4968 -19.4626 -19.4533 -19.4159
   -19.4094 -19.4068 -19.3720 -19.0227  -5.9069  -5.8829  -5.8749  -5.8295
    -5.8271  -5.8054  -5.8039  -5.7888  -5.7827  -5.7751  -5.7473  -5.7416
    -5.7351  -5.7280  -5.7078   6.6874   7.2584   8.6229  11.2597  11.5386
    11.7489  12.6129  12.7006  13.1694  13.2940  13.7088  13.8511  14.4791
    14.7812  15.3260  15.4733  16.6911  16.9568  17.5967  17.8618  18.4576
    18.4583  19.1237

          k = 0.4583 0.2646 0.0000 ( 12598 PWs)   bands (ev):

   -45.3443 -45.3000 -45.2592 -19.7832 -19.4982 -19.4913 -19.4518 -19.4340
   -19.4094 -19.3747 -19.3539 -19.0223  -5.9071  -5.8825  -5.8745  -5.8294
    -5.8273  -5.8082  -5.8011  -5.7891  -5.7828  -5.7749  -5.7475  -5.7420
    -5.7351  -5.7282  -5.7084   6.6078   7.3441   8.6197  11.2671  11.5596
    11.7258  12.6393  12.6774  13.1769  13.2948  13.6608  13.8802  14.4572
    14.7330  15.3820  15.5043  16.7125  16.9570  17.6095  17.8167  18.4522
    18.4897  19.0919

          k = 0.4167 0.2406 0.0000 ( 12586 PWs)   bands (ev):

   -45.3479 -45.2964 -45.2592 -19.7917 -19.5322 -19.5019 -19.4641 -19.4480
   -19.4094 -19.3244 -19.3237 -19.0211  -5.9076  -5.8812  -5.8735  -5.8290
    -5.8277  -5.8113  -5.7976  -5.7901  -5.7833  -5.7744  -5.7484  -5.7433
    -5.7352  -5.7287  -5.7101   6.4439   7.5221   8.6157  11.2891  11.6194
    11.6651  12.6100  12.7093  13.1998  13.2964  13.5792  13.9079  14.3972
    14.6252  15.5130  15.5911  16.7677  16.9575  17.6472  17.7093  18.4412
    18.5541  19.0117

          k = 0.3750 0.2165 0.0000 ( 12584 PWs)   bands (ev):

   -45.3528 -45.2914 -45.2592 -19.8064 -19.5679 -19.5070 -19.4949 -19.4429
   -19.4094 -19.2944 -19.2708 -19.0191  -5.9085  -5.8791  -5.8717  -5.8284
    -5.8284  -5.8140  -5.7947  -5.7915  -5.7837  -5.7736  -5.7500  -5.7455
    -5.7352  -5.7296  -5.7128   6.2641   7.7089   8.6305  11.3246  11.5830
    11.7086  12.5066  12.8037  13.2392  13.2967  13.5062  13.8987  14.3133
    14.5005  15.6749  15.7179  16.8340  16.9584  17.5788  17.7069  18.4434
    18.6018  18.9201

          k = 0.3333 0.1925 0.0000 ( 12594 PWs)   bands (ev):

   -45.3582 -45.2860 -45.2592 -19.8272 -19.5957 -19.5245 -19.5126 -19.4372
   -19.4093 -19.2661 -19.2190 -19.0163  -5.9097  -5.8763  -5.8694  -5.8293
    -5.8276  -5.8163  -5.7933  -5.7932  -5.7832  -5.7728  -5.7524  -5.7484
    -5.7349  -5.7307  -5.7162   6.0901   7.8542   8.6980  11.3722  11.4931
    11.8109  12.3831  12.9046  13.2921  13.2968  13.4513  13.8499  14.2216
    14.3770  15.8477  15.8653  16.8837  16.9600  17.4470  17.7806  18.4802
    18.6027  18.8572

          k = 0.2917 0.1684 0.0000 ( 12586 PWs)   bands (ev):

   -45.3636 -45.2805 -45.2592 -19.8524 -19.6157 -19.5522 -19.5182 -19.4315
   -19.4093 -19.2403 -19.1699 -19.0127  -5.9112  -5.8728  -5.8665  -5.8302
    -5.8266  -5.8180  -5.7953  -5.7935  -5.7814  -5.7719  -5.7553  -5.7519
    -5.7347  -5.7319  -5.7203   5.9297   7.9268   8.8469  11.4040  11.4294
    11.8980  12.2655  12.9994  13.2793  13.3731  13.4124  13.7726  14.1357
    14.2617  16.0170  16.0213  16.8959  16.9626  17.3252  17.8538  18.5478
    18.5666  18.8490

          k = 0.2500 0.1443 0.0000 ( 12588 PWs)   bands (ev):

   -45.3687 -45.2754 -45.2592 -19.8799 -19.6293 -19.5772 -19.5234 -19.4261
   -19.4093 -19.2177 -19.1247 -19.0084  -5.9129  -5.8689  -5.8632  -5.8311
    -5.8254  -5.8193  -5.7975  -5.7953  -5.7788  -5.7711  -5.7588  -5.7559
    -5.7352  -5.7325  -5.7248   5.7866   7.9364   9.0674  11.3209  11.4932
    11.9167  12.1984  13.0813  13.2566  13.3777  13.4646  13.6930  14.0636
    14.1583  16.1620  16.1882  16.8671  16.9666  17.2202  17.9094  18.4449
    18.6981  18.8976

          k = 0.2083 0.1203 0.0000 ( 12566 PWs)   bands (ev):

   -45.3733 -45.2707 -45.2592 -19.9068 -19.6383 -19.5991 -19.5282 -19.4213
   -19.4093 -19.1986 -19.0847 -19.0036  -5.9146  -5.8646  -5.8597  -5.8319
    -5.8240  -5.8199  -5.7997  -5.7977  -5.7761  -5.7704  -5.7624  -5.7601
    -5.7366  -5.7320  -5.7292   5.6630   7.9128   9.3288  11.2469  11.5597
    11.8476  12.1868  13.1498  13.2257  13.3256  13.5629  13.6531  14.0077
    14.0687  16.2936  16.3417  16.8108  16.9729  17.1366  17.9308  18.3102
    18.8350  18.9820

          k = 0.1667 0.0962 0.0000 ( 12568 PWs)   bands (ev):

   -45.3772 -45.2667 -45.2592 -19.9313 -19.6441 -19.6176 -19.5322 -19.4171
   -19.4092 -19.1833 -19.0506 -18.9987  -5.9162  -5.8602  -5.8564  -5.8324
    -5.8226  -5.8200  -5.8019  -5.8003  -5.7736  -5.7699  -5.7661  -5.7644
    -5.7383  -5.7334  -5.7314   5.5602   7.8779   9.6062  11.1842  11.6242
    11.7524  12.1547  13.1914  13.2062  13.2538  13.6581  13.6749  13.9655
    13.9941  16.4067  16.4747  16.7456  16.9822  17.0772  17.9036  18.1618
    18.9122  19.0664

          k = 0.1250 0.0722 0.0000 ( 12561 PWs)   bands (ev):

   -45.3803 -45.2635 -45.2592 -19.9516 -19.6478 -19.6323 -19.5355 -19.4137
   -19.4092 -19.1717 -19.0233 -18.9941  -5.9176  -5.8561  -5.8535  -5.8325
    -5.8210  -5.8197  -5.8040  -5.8030  -5.7716  -5.7696  -5.7694  -5.7685
    -5.7398  -5.7370  -5.7307   5.4793   7.8433   9.8804  11.1342  11.6663
    11.6818  12.0674  13.1595  13.1887  13.2513  13.7376  13.7411  13.9333
    13.9353  16.4966  16.5807  16.6867  16.9951  17.0422  17.8299  18.0167
    18.9494  19.1097

          k = 0.0833 0.0481 0.0000 ( 12535 PWs)   bands (ev):

   -45.3826 -45.2612 -45.2592 -19.9668 -19.6500 -19.6430 -19.5379 -19.4113
   -19.4092 -19.1636 -19.0033 -18.9904  -5.9188  -5.8527  -5.8513  -5.8324
    -5.8195  -5.8190  -5.8059  -5.8054  -5.7724  -5.7718  -5.7701  -5.7691
    -5.7410  -5.7397  -5.7302   5.4211   7.8153  10.1287  11.0979  11.6006
    11.7273  11.9400  13.1348  13.1449  13.2847  13.8050  13.8105  13.8930
    13.9091  16.5599  16.6426  16.6554  17.0104  17.0284  17.7386  17.8921
    18.9936  19.0986

          k = 0.0417 0.0241 0.0000 ( 12537 PWs)   bands (ev):

   -45.3840 -45.2597 -45.2592 -19.9762 -19.6512 -19.6495 -19.5393 -19.4098
   -19.4092 -19.1589 -18.9912 -18.9879  -5.9195  -5.8504  -5.8500  -5.8321
    -5.8184  -5.8182  -5.8074  -5.8072  -5.7743  -5.7741  -5.7691  -5.7689
    -5.7418  -5.7415  -5.7299   5.3859   7.7974  10.3154  11.0759  11.5597
    11.7566  11.8188  13.1195  13.1216  13.3054  13.8452  13.8669  13.8674
    13.8935  16.5960  16.6161  16.6982  17.0238  17.0276  17.6672  17.8060
    19.0370  19.0689

          k = 0.0000 0.0000 0.0000 ( 12531 PWs)   bands (ev):

   -45.3845 -45.2593 -45.2592 -19.9793 -19.6517 -19.6516 -19.5398 -19.4093
   -19.4092 -19.1574 -18.9871 -18.9870  -5.9197  -5.8496  -5.8496  -5.8319
    -5.8179  -5.8179  -5.8079  -5.8079  -5.7749  -5.7749  -5.7688  -5.7688
    -5.7421  -5.7421  -5.7297   5.3742   7.7913  10.3881  11.0685  11.5458
    11.7666  11.7667  13.1144  13.1144  13.3124  13.8589  13.8590  13.8880
    13.8880  16.6074  16.6074  16.7119  17.0291  17.0292  17.6408  17.7748
    19.0553  19.0554

          k = 0.0000 0.0000 0.0491 ( 12531 PWs)   bands (ev):

   -45.3845 -45.2593 -45.2592 -19.9792 -19.6517 -19.6516 -19.5400 -19.4093
   -19.4092 -19.1574 -18.9871 -18.9870  -5.9196  -5.8495  -5.8495  -5.8317
    -5.8178  -5.8178  -5.8084  -5.8084  -5.7751  -5.7751  -5.7685  -5.7685
    -5.7420  -5.7420  -5.7301   5.3871   7.7893  10.2820  11.1976  11.5198
    11.7817  11.7818  13.1163  13.1163  13.3024  13.7440  13.7441  14.0013
    14.0013  16.6073  16.6074  16.7103  17.0248  17.0248  17.4691  17.9202
    19.0685  19.0686

          k = 0.0000 0.0000 0.0983 ( 12549 PWs)   bands (ev):

   -45.3845 -45.2593 -45.2592 -19.9790 -19.6517 -19.6516 -19.5404 -19.4092
   -19.4091 -19.1573 -18.9871 -18.9871  -5.9195  -5.8493  -5.8493  -5.8309
    -5.8177  -5.8177  -5.8098  -5.8098  -5.7755  -5.7755  -5.7677  -5.7677
    -5.7417  -5.7417  -5.7312   5.4256   7.7829  10.0742  11.4435  11.4742
    11.8268  11.8268  13.1223  13.1223  13.2753  13.6166  13.6167  14.1241
    14.1241  16.6071  16.6072  16.7055  17.0122  17.0123  17.2243  18.0889
    19.1069  19.1070

          k = 0.0000 0.0000 0.1474 ( 12525 PWs)   bands (ev):

   -45.3845 -45.2593 -45.2592 -19.9787 -19.6517 -19.6517 -19.5410 -19.4091
   -19.4090 -19.1573 -18.9872 -18.9871  -5.9192  -5.8491  -5.8491  -5.8296
    -5.8174  -5.8174  -5.8121  -5.8120  -5.7759  -5.7759  -5.7667  -5.7667
    -5.7414  -5.7414  -5.7330   5.4892   7.7708   9.8546  11.3214  11.8077
    11.9002  11.9003  13.1333  13.1333  13.2385  13.4922  13.4923  14.2413
    14.2414  16.6065  16.6065  16.6980  16.9627  16.9931  16.9932  18.2315
    18.9578  18.9579

          k = 0.0000 0.0000 0.1966 ( 12543 PWs)   bands (ev):

   -45.3845 -45.2593 -45.2592 -19.9783 -19.6518 -19.6517 -19.5418 -19.4090
   -19.4089 -19.1573 -18.9872 -18.9872  -5.9188  -5.8487  -5.8487  -5.8279
    -5.8172  -5.8172  -5.8149  -5.8149  -5.7760  -5.7760  -5.7657  -5.7657
    -5.7410  -5.7410  -5.7354   5.5771   7.7506   9.6474  11.1624  11.9994
    11.9994  12.1728  13.1508  13.1509  13.1998  13.3733  13.3734  14.3510
    14.3510  16.6046  16.6047  16.6883  16.6965  16.9693  16.9694  18.3464
    18.5095  18.5096

          k = 0.0000 0.0000 0.2457 ( 12555 PWs)   bands (ev):

   -45.3844 -45.2593 -45.2592 -19.9778 -19.6518 -19.6517 -19.5428 -19.4089
   -19.4088 -19.1573 -18.9873 -18.9872  -5.9184  -5.8483  -5.8483  -5.8260
    -5.8182  -5.8182  -5.8171  -5.8171  -5.7757  -5.7757  -5.7649  -5.7649
    -5.7406  -5.7406  -5.7381   5.6881   7.7192   9.4600  10.9784  12.1197
    12.1197  12.5603  13.1649  13.1779  13.1780  13.2624  13.2624  14.4514
    14.4515  16.4359  16.6000  16.6000  16.6771  16.9432  16.9433  18.0452
    18.0454  18.4359

          k = 0.0000 0.0000 0.2949 ( 12555 PWs)   bands (ev):

   -45.3844 -45.2593 -45.2592 -19.9773 -19.6519 -19.6518 -19.5438 -19.4088
   -19.4087 -19.1573 -18.9874 -18.9873  -5.9179  -5.8478  -5.8478  -5.8239
    -5.8218  -5.8218  -5.8171  -5.8170  -5.7750  -5.7750  -5.7642  -5.7642
    -5.7410  -5.7402  -5.7402   5.8204   7.6725   9.2953  10.7841  12.2536
    12.2536  12.9646  13.1366  13.1615  13.1616  13.2196  13.2197  14.5413
    14.5414  16.1901  16.5883  16.5884  16.6651  16.9167  16.9168  17.5871
    17.5872  18.5039

          k = 0.0000 0.0000 0.3440 ( 12549 PWs)   bands (ev):

   -45.3844 -45.2593 -45.2592 -19.9768 -19.6519 -19.6519 -19.5449 -19.4087
   -19.4086 -19.1573 -18.9874 -18.9874  -5.9175  -5.8472  -5.8472  -5.8254
    -5.8253  -5.8218  -5.8171  -5.8171  -5.7739  -5.7739  -5.7638  -5.7638
    -5.7439  -5.7398  -5.7398   5.9718   7.6066   9.1548  10.5940  12.3897
    12.3897  13.0727  13.0728  13.1157  13.2837  13.2838  13.3803  14.6194
    14.6195  15.9672  16.5547  16.5548  16.6531  16.8917  16.8917  17.1628
    17.1629  18.5548

          k = 0.0000 0.0000 0.3932 ( 12579 PWs)   bands (ev):

   -45.3844 -45.2593 -45.2592 -19.9763 -19.6520 -19.6519 -19.5458 -19.4086
   -19.4085 -19.1573 -18.9875 -18.9874  -5.9170  -5.8465  -5.8465  -5.8288
    -5.8287  -5.8199  -5.8173  -5.8173  -5.7725  -5.7725  -5.7637  -5.7637
    -5.7466  -5.7396  -5.7396   6.1392   7.5178   9.0392  10.4219  12.5130
    12.5130  12.9976  12.9977  13.1015  13.3791  13.3792  13.7998  14.6848
    14.6848  15.7740  16.4334  16.4335  16.6421  16.8492  16.8493  16.8694
    16.8695  18.3836

          k = 0.0000 0.0000 0.4423 ( 12573 PWs)   bands (ev):

   -45.3844 -45.2593 -45.2592 -19.9758 -19.6520 -19.6519 -19.5467 -19.4085
   -19.4084 -19.1573 -18.9875 -18.9875  -5.9167  -5.8458  -5.8458  -5.8318
    -5.8318  -5.8182  -5.8175  -5.8175  -5.7710  -5.7710  -5.7639  -5.7639
    -5.7489  -5.7393  -5.7393   6.3186   7.4044   8.9489  10.2786  12.6098
    12.6098  12.9377  12.9378  13.0927  13.5092  13.5093  14.2106  14.7366
    14.7366  15.6167  16.1536  16.1537  16.6327  16.7313  16.7313  16.8510
    16.8511  17.9328

          k = 0.0000 0.0000 0.4915 ( 12561 PWs)   bands (ev):

   -45.3843 -45.2593 -45.2592 -19.9755 -19.6520 -19.6520 -19.5473 -19.4084
   -19.4083 -19.1573 -18.9876 -18.9875  -5.9164  -5.8451  -5.8451  -5.8343
    -5.8343  -5.8177  -5.8177  -5.8169  -5.7694  -5.7694  -5.7644  -5.7644
    -5.7507  -5.7392  -5.7392   6.5038   7.2681   8.8843  10.1721  12.6748
    12.6748  12.8941  12.8942  13.0880  13.6601  13.6603  14.5881  14.7741
    14.7741  15.5003  15.8461  15.8462  16.6255  16.6995  16.6995  16.8373
    16.8374  17.5252

          k = 0.0000 0.0000 0.5406 ( 12574 PWs)   bands (ev):

   -45.3843 -45.2593 -45.2592 -19.9753 -19.6521 -19.6520 -19.5477 -19.4084
   -19.4082 -19.1573 -18.9876 -18.9876  -5.9162  -5.8444  -5.8444  -5.8360
    -5.8360  -5.8178  -5.8178  -5.8161  -5.7679  -5.7679  -5.7653  -5.7653
    -5.7518  -5.7391  -5.7391   6.6828   7.1191   8.8455  10.1068  12.7106
    12.7107  12.8677  12.8678  13.0858  13.7930  13.7931  14.7968  14.7969
    14.8807  15.4287  15.6133  15.6134  16.6209  16.6890  16.6891  16.8289
    16.8290  17.2138

          k = 0.0000 0.0000 0.5898 ( 12604 PWs)   bands (ev):

   -45.3843 -45.2593 -45.2592 -19.9752 -19.6521 -19.6520 -19.5478 -19.4083
   -19.4082 -19.1573 -18.9876 -18.9876  -5.9162  -5.8442  -5.8442  -5.8367
    -5.8367  -5.8179  -5.8179  -5.8158  -5.7667  -5.7667  -5.7663  -5.7663
    -5.7522  -5.7390  -5.7390   6.7915   7.0204   8.8325  10.0849  12.7219
    12.7220  12.8588  12.8589  13.0852  13.8487  13.8489  14.8044  14.8045
    14.9983  15.4045  15.5240  15.5241  16.6194  16.6863  16.6864  16.8261
    16.8261  17.0899

     Writing all to output data dir ./out/mosn.save/ :
     XML data file, pseudopotentials, collected wavefunctions

     init_run     :      0.24s CPU      0.50s WALL (       1 calls)
     electrons    :     28.93s CPU     55.21s WALL (       1 calls)

     Called by init_run:
     wfcinit      :      0.00s CPU      0.00s WALL (       1 calls)
     potinit      :      0.02s CPU      0.03s WALL (       1 calls)
     hinit0       :      0.18s CPU      0.36s WALL (       1 calls)

     Called by electrons:
     c_bands      :     28.92s CPU     55.20s WALL (       1 calls)
     v_of_rho     :      0.01s CPU      0.02s WALL (       1 calls)

     Called by c_bands:
     init_us_2    :      0.03s CPU      0.04s WALL (      49 calls)
     cegterg      :     27.63s CPU     52.56s WALL (      99 calls)

     Called by *egterg:
     cdiaghg      :      7.53s CPU     14.17s WALL (    1310 calls)
     h_psi        :     15.06s CPU     28.73s WALL (    1409 calls)
     g_psi        :      0.19s CPU      0.20s WALL (    1261 calls)

     Called by h_psi:
     h_psi:calbec :      1.46s CPU      2.68s WALL (    1409 calls)
     vloc_psi     :     12.35s CPU     23.90s WALL (    1409 calls)
                                        0.00s GPU  (    1409 calls)
     add_vuspsi   :      1.08s CPU      1.71s WALL (    1409 calls)

     General routines
     calbec       :      1.45s CPU      2.68s WALL (    1409 calls)
     fft          :      0.16s CPU      0.31s WALL (      18 calls)
     fftw         :     11.11s CPU     22.19s WALL (   88424 calls)
     davcio       :      0.01s CPU      0.02s WALL (      98 calls)

     Parallel routines

     PWSCF        :     30.12s CPU     58.31s WALL


   This run was terminated on:  13:50: 1  15Jun2026            

=------------------------------------------------------------------------------=
   JOB DONE.
=------------------------------------------------------------------------------=
Note: The following floating-point exceptions are signalling: IEEE_DENORMAL
Note: The following floating-point exceptions are signalling: IEEE_DENORMAL
Note: The following floating-point exceptions are signalling: IEEE_DENORMAL
Note: The following floating-point exceptions are signalling: IEEE_DENORMAL
Note: The following floating-point exceptions are signalling: IEEE_INVALID_FLAG IEEE_DENORMAL
