
     Program PWSCF v.7.5 starts on 15Jun2026 at 13:29:19 

     This program is part of the open-source Quantum ESPRESSO suite
     for quantum simulation of materials; please cite
         "P. Giannozzi et al., J. Phys.:Condens. Matter 21 395502 (2009);
         "P. Giannozzi et al., J. Phys.:Condens. Matter 29 465901 (2017);
         "P. Giannozzi et al., J. Chem. Phys. 152 154105 (2020);
          URL http://www.quantum-espresso.org", 
     in publications or presentations arising from this work. More details at
     http://www.quantum-espresso.org/quote

     Parallel version (MPI & OpenMP), running on      16 processor cores
     Number of MPI processes:                16
     Threads/MPI process:                     1

     MPI processes distributed on     1 nodes
     737694 MiB available memory on the printing compute node when the environment starts

     Reading input from scf.in

     Current dimensions of program PWSCF are:
     Max number of different atomic species (ntypx) = 10
     Max number of k-points (npk) =  40000
     Max angular momentum in pseudopotentials (lmaxx) =  4

     R & G space division:  proc/nbgrp/npool/nimage =      16
     Subspace diagonalization in iterative solution of the eigenvalue problem:
     a serial algorithm will be used


     Parallelization info
     --------------------
     sticks:   dense  smooth     PW     G-vecs:    dense   smooth      PW
     Min         173     173     48                 6289     6289     926
     Max         174     174     49                 6292     6292     929
     Sum        2773    2773    769               100651   100651   14825

     Using Slab Decomposition



     bravais-lattice index     =            4
     lattice parameter (alat)  =      10.5940  a.u.
     unit-cell volume          =     872.9488 (a.u.)^3
     number of atoms/cell      =            6
     number of atomic types    =            2
     number of electrons       =        84.00
     number of Kohn-Sham states=           50
     kinetic-energy cutoff     =      90.0000  Ry
     charge density cutoff     =     360.0000  Ry
     scf convergence threshold =      1.0E-10
     mixing beta               =       0.4000
     number of iterations used =            8  plain     mixing
     Exchange-correlation= PBE
                           (   1   4   3   4   0   0   0)

     celldm(1)=  10.593960  celldm(2)=   0.000000  celldm(3)=   0.847780
     celldm(4)=   0.000000  celldm(5)=   0.000000  celldm(6)=   0.000000

     crystal axes: (cart. coord. in units of alat)
               a(1) = (   1.000000   0.000000   0.000000 )  
               a(2) = (  -0.500000   0.866025   0.000000 )  
               a(3) = (   0.000000   0.000000   0.847780 )  

     reciprocal axes: (cart. coord. in units 2 pi/alat)
               b(1) = (  1.000000  0.577350 -0.000000 )  
               b(2) = (  0.000000  1.154701  0.000000 )  
               b(3) = (  0.000000 -0.000000  1.179551 )  


     PseudoPot. # 1 for Mo read from file:
     ./pseudo/Mo_ONCV_PBE_sr.upf
     MD5 check sum: 2665c9f4159700498d9a5f7573bd8e9f
     Pseudo is Norm-conserving, Zval = 14.0
     Generated using ONCVPSP code by D. R. Hamann
     Using radial grid of  602 points,  6 beta functions with: 
                l(1) =   0
                l(2) =   0
                l(3) =   1
                l(4) =   1
                l(5) =   2
                l(6) =   2

     PseudoPot. # 2 for Sn read from file:
     ./pseudo/Sn_ONCV_PBE_sr.upf
     MD5 check sum: 6680f7ee4d83b53e0fcd4167fcb72813
     Pseudo is Norm-conserving, Zval = 14.0
     Generated using ONCVPSP code by D. R. Hamann
     Using radial grid of  602 points,  6 beta functions with: 
                l(1) =   0
                l(2) =   0
                l(3) =   1
                l(4) =   1
                l(5) =   2
                l(6) =   2

     atomic species   valence    mass     pseudopotential
     Mo               14.00    95.95000     Mo( 1.00)
     Sn               14.00   118.71000     Sn( 1.00)

     Starting magnetic structure 
     atomic species   magnetization
     Mo              0.300
     Sn              0.000

     24 Sym. Ops., with inversion, found



   Cartesian axes

     site n.     atom                  positions (alat units)
         1        Mo     tau(   1) = (   0.5000000   0.0000000   0.0000000  )
         2        Mo     tau(   2) = (  -0.2500000   0.4330127   0.0000000  )
         3        Mo     tau(   3) = (   0.2500000   0.4330127   0.0000000  )
         4        Sn     tau(   4) = (   0.0000000   0.0000000   0.0000000  )
         5        Sn     tau(   5) = (  -0.0000005   0.5773506   0.4238900  )
         6        Sn     tau(   6) = (   0.5000005   0.2886748   0.4238900  )

     number of k points=   133  Methfessel-Paxton smearing, width (Ry)=  0.0200

     Number of k-points >= 100: set verbosity='high' to print them.

     Dense  grid:   100651 G-vectors     FFT dimensions: (  64,  64,  60)

     Estimated max dynamical RAM per process >     173.87 MB

     Estimated total dynamical RAM >       2.72 GB
     Generating pointlists ...
     new r_m :   0.2063 (alat units)  2.1850 (a.u.) for type    1
     new r_m :   0.2063 (alat units)  2.1850 (a.u.) for type    2

     Initial potential from superposition of free atoms

     starting charge      83.4680, renormalised to      84.0000
     Starting wfcs are random

     total cpu time spent up to now is        6.1 secs

     per-process dynamical memory:   183.5 Mb

     Self-consistent Calculation

     iteration #  1     ecut=    90.00 Ry     beta= 0.40
     Davidson diagonalization with overlap
     ethr =  1.00E-02,  avg # of iterations = 10.8

     total cpu time spent up to now is       59.7 secs

     total energy              =    -772.92221546 Ry
     estimated scf accuracy    <       0.86327096 Ry

     total magnetization       =     3.96 Bohr mag/cell
     absolute magnetization    =     4.91 Bohr mag/cell

     iteration #  2     ecut=    90.00 Ry     beta= 0.40
     Davidson diagonalization with overlap
     ethr =  1.03E-03,  avg # of iterations =  2.4

     total cpu time spent up to now is       76.8 secs

     total energy              =    -773.16985999 Ry
     estimated scf accuracy    <       0.33698848 Ry

     total magnetization       =     2.50 Bohr mag/cell
     absolute magnetization    =     3.39 Bohr mag/cell

     iteration #  3     ecut=    90.00 Ry     beta= 0.40
     Davidson diagonalization with overlap
     ethr =  4.01E-04,  avg # of iterations =  2.4

     total cpu time spent up to now is       92.5 secs

     total energy              =    -773.30382620 Ry
     estimated scf accuracy    <       0.09677559 Ry

     total magnetization       =     2.17 Bohr mag/cell
     absolute magnetization    =     3.00 Bohr mag/cell

     iteration #  4     ecut=    90.00 Ry     beta= 0.40
     Davidson diagonalization with overlap
     ethr =  1.15E-04,  avg # of iterations =  3.9

     total cpu time spent up to now is      110.0 secs

     total energy              =    -773.33684085 Ry
     estimated scf accuracy    <       0.01220113 Ry

     total magnetization       =     1.35 Bohr mag/cell
     absolute magnetization    =     1.97 Bohr mag/cell

     iteration #  5     ecut=    90.00 Ry     beta= 0.40
     Davidson diagonalization with overlap
     ethr =  1.45E-05,  avg # of iterations =  6.0

     total cpu time spent up to now is      132.4 secs

     total energy              =    -773.34712903 Ry
     estimated scf accuracy    <       0.00240110 Ry

     total magnetization       =     0.76 Bohr mag/cell
     absolute magnetization    =     1.15 Bohr mag/cell

     iteration #  6     ecut=    90.00 Ry     beta= 0.40
     Davidson diagonalization with overlap
     ethr =  2.86E-06,  avg # of iterations =  4.2

     total cpu time spent up to now is      151.4 secs

     total energy              =    -773.35008882 Ry
     estimated scf accuracy    <       0.00054198 Ry

     total magnetization       =     0.48 Bohr mag/cell
     absolute magnetization    =     0.76 Bohr mag/cell

     iteration #  7     ecut=    90.00 Ry     beta= 0.40
     Davidson diagonalization with overlap
     ethr =  6.45E-07,  avg # of iterations =  4.8

     total cpu time spent up to now is      174.0 secs

     total energy              =    -773.35187969 Ry
     estimated scf accuracy    <       0.00013513 Ry

     total magnetization       =     0.21 Bohr mag/cell
     absolute magnetization    =     0.34 Bohr mag/cell

     iteration #  8     ecut=    90.00 Ry     beta= 0.40
     Davidson diagonalization with overlap
     ethr =  1.61E-07,  avg # of iterations =  4.8

     total cpu time spent up to now is      196.0 secs

     total energy              =    -773.35230803 Ry
     estimated scf accuracy    <       0.00005339 Ry

     total magnetization       =     0.08 Bohr mag/cell
     absolute magnetization    =     0.13 Bohr mag/cell

     iteration #  9     ecut=    90.00 Ry     beta= 0.40
     Davidson diagonalization with overlap
     ethr =  6.36E-08,  avg # of iterations =  3.4

     total cpu time spent up to now is      214.8 secs

     total energy              =    -773.35237625 Ry
     estimated scf accuracy    <       0.00000848 Ry

     total magnetization       =     0.03 Bohr mag/cell
     absolute magnetization    =     0.06 Bohr mag/cell

     iteration # 10     ecut=    90.00 Ry     beta= 0.40
     Davidson diagonalization with overlap
     ethr =  1.01E-08,  avg # of iterations =  4.2

     total cpu time spent up to now is      235.2 secs

     total energy              =    -773.35239609 Ry
     estimated scf accuracy    <       0.00000176 Ry

     total magnetization       =     0.01 Bohr mag/cell
     absolute magnetization    =     0.02 Bohr mag/cell

     iteration # 11     ecut=    90.00 Ry     beta= 0.40
     Davidson diagonalization with overlap
     ethr =  2.09E-09,  avg # of iterations =  4.1

     total cpu time spent up to now is      255.9 secs

     total energy              =    -773.35239988 Ry
     estimated scf accuracy    <       0.00000104 Ry

     total magnetization       =     0.00 Bohr mag/cell
     absolute magnetization    =     0.00 Bohr mag/cell

     iteration # 12     ecut=    90.00 Ry     beta= 0.40
     Davidson diagonalization with overlap
     ethr =  1.23E-09,  avg # of iterations =  2.7

     total cpu time spent up to now is      272.8 secs

     total energy              =    -773.35240022 Ry
     estimated scf accuracy    <       0.00000004 Ry

     total magnetization       =     0.00 Bohr mag/cell
     absolute magnetization    =     0.00 Bohr mag/cell

     iteration # 13     ecut=    90.00 Ry     beta= 0.40
     Davidson diagonalization with overlap
     ethr =  4.41E-11,  avg # of iterations =  4.6

     total cpu time spent up to now is      294.6 secs

     total energy              =    -773.35240028 Ry
     estimated scf accuracy    <       0.00000002 Ry

     total magnetization       =     0.00 Bohr mag/cell
     absolute magnetization    =     0.00 Bohr mag/cell

     iteration # 14     ecut=    90.00 Ry     beta= 0.40
     Davidson diagonalization with overlap
     ethr =  2.00E-11,  avg # of iterations =  3.3

     total cpu time spent up to now is      312.7 secs

     total energy              =    -773.35240029 Ry
     estimated scf accuracy    <          1.7E-09 Ry

     total magnetization       =    -0.00 Bohr mag/cell
     absolute magnetization    =     0.00 Bohr mag/cell

     iteration # 15     ecut=    90.00 Ry     beta= 0.40
     Davidson diagonalization with overlap
     ethr =  2.04E-12,  avg # of iterations =  3.7

     total cpu time spent up to now is      331.8 secs

     total energy              =    -773.35240029 Ry
     estimated scf accuracy    <          1.3E-10 Ry

     total magnetization       =     0.00 Bohr mag/cell
     absolute magnetization    =     0.00 Bohr mag/cell

     iteration # 16     ecut=    90.00 Ry     beta= 0.40
     Davidson diagonalization with overlap
     ethr =  1.61E-13,  avg # of iterations =  4.3

     Magnetic moment per site  (integrated on atomic sphere of radius R)
     atom   1 (R=0.206)  charge= 11.9223  magn= -0.0000
     atom   2 (R=0.206)  charge= 11.9223  magn= -0.0000
     atom   3 (R=0.206)  charge= 11.9223  magn= -0.0000
     atom   4 (R=0.206)  charge= 11.7491  magn=  0.0000
     atom   5 (R=0.206)  charge= 11.7087  magn= -0.0000
     atom   6 (R=0.206)  charge= 11.7087  magn= -0.0000

     total cpu time spent up to now is      353.0 secs

     End of self-consistent calculation

     Number of k-points >= 100: set verbosity='high' to print the bands.

     the Fermi energy is    15.6420 ev

!    total energy              =    -773.35240029 Ry
     estimated scf accuracy    <          2.5E-11 Ry
     smearing contrib. (-TS)   =      -0.00028630 Ry
     internal energy E=F+TS    =    -773.35211398 Ry

     The total energy is F=E-TS. E is the sum of the following terms:
     one-electron contribution =    -230.43168626 Ry
     hartree contribution      =     158.76561435 Ry
     xc contribution           =     -91.30828786 Ry
     ewald contribution        =    -610.37775420 Ry

     total magnetization       =    -0.00 Bohr mag/cell
     absolute magnetization    =     0.00 Bohr mag/cell

     convergence has been achieved in  16 iterations

     Forces acting on atoms (cartesian axes, Ry/au):

     atom    1 type  1   force =     0.00000000    0.00000000    0.00000000
     atom    2 type  1   force =     0.00000000    0.00000000    0.00000000
     atom    3 type  1   force =     0.00000000    0.00000000    0.00000000
     atom    4 type  2   force =     0.00000000    0.00000000    0.00000000
     atom    5 type  2   force =     0.00000000    0.00000000   -0.00000000
     atom    6 type  2   force =    -0.00000000   -0.00000000    0.00000000

     Total force =     0.000000     Total SCF correction =     0.000000


     Computing stress (Cartesian axis) and pressure

          total   stress  (Ry/bohr**3)                   (kbar)     P=        0.58
   0.00003185   0.00000000  -0.00000000            4.68        0.00       -0.00
   0.00000000   0.00003185  -0.00000000            0.00        4.68       -0.00
  -0.00000000  -0.00000000  -0.00005178           -0.00       -0.00       -7.62


     Writing all to output data dir ./out/mosn.save/ :
     XML data file, charge density, pseudopotentials, collected wavefunctions

     init_run     :      5.61s CPU      6.11s WALL (       1 calls)
     electrons    :    336.47s CPU    346.87s WALL (       1 calls)
     forces       :      1.37s CPU      1.46s WALL (       1 calls)
     stress       :      5.33s CPU      5.57s WALL (       1 calls)

     Called by init_run:
     wfcinit      :      5.34s CPU      5.83s WALL (       1 calls)
     potinit      :      0.02s CPU      0.02s WALL (       1 calls)
     hinit0       :      0.17s CPU      0.18s WALL (       1 calls)

     Called by electrons:
     c_bands      :    306.62s CPU    315.90s WALL (      16 calls)
     sum_band     :     29.54s CPU     30.62s WALL (      16 calls)
     v_of_rho     :      0.24s CPU      0.28s WALL (      17 calls)
     mix_rho      :      0.06s CPU      0.08s WALL (      16 calls)

     Called by c_bands:
     init_us_2    :      4.59s CPU      4.81s WALL (    9310 calls)
     cegterg      :    295.72s CPU    304.68s WALL (    4256 calls)

     Called by *egterg:
     cdiaghg      :     54.22s CPU     54.48s WALL (   22726 calls)
     h_psi        :    197.39s CPU    204.46s WALL (   22992 calls)
     g_psi        :      2.16s CPU      2.18s WALL (   18470 calls)

     Called by h_psi:
     h_psi:calbec :     18.06s CPU     19.46s WALL (   22992 calls)
     vloc_psi     :    165.10s CPU    170.41s WALL (   22992 calls)
                                        0.00s GPU  (   22992 calls)
     add_vuspsi   :     12.24s CPU     12.41s WALL (   22992 calls)

     General routines
     calbec       :     22.02s CPU     23.73s WALL (   27514 calls)
     fft          :      0.23s CPU      0.27s WALL (     332 calls)
     ffts         :      0.01s CPU      0.01s WALL (      32 calls)
     fftw         :    172.86s CPU    178.33s WALL ( 1510486 calls)

     Parallel routines

     PWSCF        :   5m50.66s CPU   6m 3.61s WALL


   This run was terminated on:  13:35:23  15Jun2026            

=------------------------------------------------------------------------------=
   JOB DONE.
=------------------------------------------------------------------------------=
Note: The following floating-point exceptions are signalling: IEEE_DENORMAL
Note: The following floating-point exceptions are signalling: IEEE_INVALID_FLAG IEEE_DENORMAL
Note: The following floating-point exceptions are signalling: IEEE_DENORMAL
Note: The following floating-point exceptions are signalling: IEEE_INVALID_FLAG IEEE_DENORMAL
