
     Program PWSCF v.7.5 starts on 16Jun2026 at  3:27:37 

     This program is part of the open-source Quantum ESPRESSO suite
     for quantum simulation of materials; please cite
         "P. Giannozzi et al., J. Phys.:Condens. Matter 21 395502 (2009);
         "P. Giannozzi et al., J. Phys.:Condens. Matter 29 465901 (2017);
         "P. Giannozzi et al., J. Chem. Phys. 152 154105 (2020);
          URL http://www.quantum-espresso.org", 
     in publications or presentations arising from this work. More details at
     http://www.quantum-espresso.org/quote

     Parallel version (MPI & OpenMP), running on       6 processor cores
     Number of MPI processes:                 6
     Threads/MPI process:                     1

     MPI processes distributed on     1 nodes
     10606 MiB available memory on the printing compute node when the environment starts

     Reading input from scf.in

     Current dimensions of program PWSCF are:
     Max number of different atomic species (ntypx) = 10
     Max number of k-points (npk) =  40000
     Max angular momentum in pseudopotentials (lmaxx) =  4

     R & G space division:  proc/nbgrp/npool/nimage =       6
     Subspace diagonalization in iterative solution of the eigenvalue problem:
     a serial algorithm will be used


     Parallelization info
     --------------------
     sticks:   dense  smooth     PW     G-vecs:    dense   smooth      PW
     Min         413     413    114                13347    13347    1990
     Max         414     414    115                13348    13348    1991
     Sum        2479    2479    685                80083    80083   11941

     Using Slab Decomposition



     bravais-lattice index     =            4
     lattice parameter (alat)  =       9.9760  a.u.
     unit-cell volume          =     693.6907 (a.u.)^3
     number of atoms/cell      =            6
     number of atomic types    =            2
     number of electrons       =        92.60
     number of Kohn-Sham states=           56
     kinetic-energy cutoff     =      90.0000  Ry
     charge density cutoff     =     360.0000  Ry
     scf convergence threshold =      1.0E-10
     mixing beta               =       0.4000
     number of iterations used =            8  plain     mixing
     Exchange-correlation= PBE
                           (   1   4   3   4   0   0   0)

     celldm(1)=   9.976000  celldm(2)=   0.000000  celldm(3)=   0.806800
     celldm(4)=   0.000000  celldm(5)=   0.000000  celldm(6)=   0.000000

     crystal axes: (cart. coord. in units of alat)
               a(1) = (   1.000000   0.000000   0.000000 )  
               a(2) = (  -0.500000   0.866025   0.000000 )  
               a(3) = (   0.000000   0.000000   0.806800 )  

     reciprocal axes: (cart. coord. in units 2 pi/alat)
               b(1) = (  1.000000  0.577350 -0.000000 )  
               b(2) = (  0.000000  1.154701  0.000000 )  
               b(3) = (  0.000000 -0.000000  1.239465 )  


     PseudoPot. # 1 for Co read from file:
     ./pseudo/Co_ONCV_PBE_sr.upf
     MD5 check sum: 04640e31e65e5bce9f0417487be359f7
     Pseudo is Norm-conserving, Zval = 17.0
     Generated using ONCVPSP code by D. R. Hamann
     Using radial grid of  602 points,  6 beta functions with: 
                l(1) =   0
                l(2) =   0
                l(3) =   1
                l(4) =   1
                l(5) =   2
                l(6) =   2

     PseudoPot. # 2 for Sn read from file:
     ./pseudo/Sn_ONCV_PBE_sr.upf
     MD5 check sum: 6680f7ee4d83b53e0fcd4167fcb72813
     Pseudo is Norm-conserving, Zval = 14.0
     Generated using ONCVPSP code by D. R. Hamann
     Using radial grid of  602 points,  6 beta functions with: 
                l(1) =   0
                l(2) =   0
                l(3) =   1
                l(4) =   1
                l(5) =   2
                l(6) =   2

     atomic species   valence    mass     pseudopotential
     Co               17.00    58.93300     Co( 1.00)
     Sn               14.00   118.71000     Sn( 1.00)

     Starting magnetic structure 
     atomic species   magnetization
     Co              0.300
     Sn              0.000

     24 Sym. Ops., with inversion, found



   Cartesian axes

     site n.     atom                  positions (alat units)
         1        Co     tau(   1) = (   0.5000000   0.0000000   0.0000000  )
         2        Co     tau(   2) = (  -0.2500000   0.4330127   0.0000000  )
         3        Co     tau(   3) = (   0.2500000   0.4330127   0.0000000  )
         4        Sn     tau(   4) = (   0.0000000   0.0000000   0.0000000  )
         5        Sn     tau(   5) = (  -0.0000005   0.5773506   0.4034000  )
         6        Sn     tau(   6) = (   0.5000005   0.2886748   0.4034000  )

     number of k points=   133  Methfessel-Paxton smearing, width (Ry)=  0.0200

     Number of k-points >= 100: set verbosity='high' to print them.

     Dense  grid:    80083 G-vectors     FFT dimensions: (  64,  64,  50)

     Estimated max dynamical RAM per process >     406.45 MB

     Estimated total dynamical RAM >       2.38 GB
     Generating pointlists ...
     new r_m :   0.2046 (alat units)  2.0413 (a.u.) for type    1
     new r_m :   0.2046 (alat units)  2.0413 (a.u.) for type    2

     Initial potential from superposition of free atoms

     starting charge      92.6277, renormalised to      92.6000
     Starting wfcs are random

     total cpu time spent up to now is        7.3 secs

     per-process dynamical memory:   422.0 Mb

     Self-consistent Calculation

     iteration #  1     ecut=    90.00 Ry     beta= 0.40
     Davidson diagonalization with overlap
     ethr =  1.00E-02,  avg # of iterations = 10.8

     total cpu time spent up to now is       79.0 secs

     total energy              =   -1174.84796366 Ry
     estimated scf accuracy    <       1.97330831 Ry

     total magnetization       =     4.21 Bohr mag/cell
     absolute magnetization    =     5.18 Bohr mag/cell

     iteration #  2     ecut=    90.00 Ry     beta= 0.40
     Davidson diagonalization with overlap
     ethr =  2.13E-03,  avg # of iterations =  2.0

     total cpu time spent up to now is       99.2 secs

     total energy              =   -1174.90438104 Ry
     estimated scf accuracy    <       2.26426395 Ry

     total magnetization       =     7.00 Bohr mag/cell
     absolute magnetization    =     7.71 Bohr mag/cell

     iteration #  3     ecut=    90.00 Ry     beta= 0.40
     Davidson diagonalization with overlap
     ethr =  2.13E-03,  avg # of iterations =  2.0

     total cpu time spent up to now is      118.3 secs

     total energy              =   -1175.40570788 Ry
     estimated scf accuracy    <       0.55625216 Ry

     total magnetization       =     4.03 Bohr mag/cell
     absolute magnetization    =     5.03 Bohr mag/cell

     iteration #  4     ecut=    90.00 Ry     beta= 0.40
     Davidson diagonalization with overlap
     ethr =  6.01E-04,  avg # of iterations =  1.6

     total cpu time spent up to now is      136.4 secs

     total energy              =   -1175.47555818 Ry
     estimated scf accuracy    <       0.02131082 Ry

     total magnetization       =     3.43 Bohr mag/cell
     absolute magnetization    =     4.39 Bohr mag/cell

     iteration #  5     ecut=    90.00 Ry     beta= 0.40
     Davidson diagonalization with overlap
     ethr =  2.30E-05,  avg # of iterations =  4.0

     total cpu time spent up to now is      158.6 secs

     total energy              =   -1175.48917779 Ry
     estimated scf accuracy    <       0.00944480 Ry

     total magnetization       =     2.63 Bohr mag/cell
     absolute magnetization    =     3.55 Bohr mag/cell

     iteration #  6     ecut=    90.00 Ry     beta= 0.40
     Davidson diagonalization with overlap
     ethr =  1.02E-05,  avg # of iterations =  2.6

     total cpu time spent up to now is      178.3 secs

     total energy              =   -1175.49096908 Ry
     estimated scf accuracy    <       0.00487199 Ry

     total magnetization       =     2.14 Bohr mag/cell
     absolute magnetization    =     2.97 Bohr mag/cell

     iteration #  7     ecut=    90.00 Ry     beta= 0.40
     Davidson diagonalization with overlap
     ethr =  5.26E-06,  avg # of iterations =  3.5

     total cpu time spent up to now is      202.1 secs

     total energy              =   -1175.50598773 Ry
     estimated scf accuracy    <       0.00403420 Ry

     total magnetization       =     0.97 Bohr mag/cell
     absolute magnetization    =     1.53 Bohr mag/cell

     iteration #  8     ecut=    90.00 Ry     beta= 0.40
     Davidson diagonalization with overlap
     ethr =  4.36E-06,  avg # of iterations =  1.0

     total cpu time spent up to now is      218.9 secs

     total energy              =   -1175.50767753 Ry
     estimated scf accuracy    <       0.00385648 Ry

     total magnetization       =     0.91 Bohr mag/cell
     absolute magnetization    =     1.44 Bohr mag/cell

     iteration #  9     ecut=    90.00 Ry     beta= 0.40
     Davidson diagonalization with overlap
     ethr =  4.16E-06,  avg # of iterations =  2.1

     total cpu time spent up to now is      238.9 secs

     total energy              =   -1175.51074455 Ry
     estimated scf accuracy    <       0.00102479 Ry

     total magnetization       =     0.60 Bohr mag/cell
     absolute magnetization    =     0.88 Bohr mag/cell

     iteration # 10     ecut=    90.00 Ry     beta= 0.40
     Davidson diagonalization with overlap
     ethr =  1.11E-06,  avg # of iterations =  2.7

     total cpu time spent up to now is      259.6 secs

     total energy              =   -1175.51066532 Ry
     estimated scf accuracy    <       0.00028460 Ry

     total magnetization       =     0.57 Bohr mag/cell
     absolute magnetization    =     0.75 Bohr mag/cell

     iteration # 11     ecut=    90.00 Ry     beta= 0.40
     Davidson diagonalization with overlap
     ethr =  3.07E-07,  avg # of iterations =  3.1

     total cpu time spent up to now is      281.7 secs

     total energy              =   -1175.51121975 Ry
     estimated scf accuracy    <       0.00010430 Ry

     total magnetization       =     0.44 Bohr mag/cell
     absolute magnetization    =     0.52 Bohr mag/cell

     iteration # 12     ecut=    90.00 Ry     beta= 0.40
     Davidson diagonalization with overlap
     ethr =  1.13E-07,  avg # of iterations =  1.0

     total cpu time spent up to now is      298.6 secs

     total energy              =   -1175.51122294 Ry
     estimated scf accuracy    <       0.00008056 Ry

     total magnetization       =     0.45 Bohr mag/cell
     absolute magnetization    =     0.52 Bohr mag/cell

     iteration # 13     ecut=    90.00 Ry     beta= 0.40
     Davidson diagonalization with overlap
     ethr =  8.70E-08,  avg # of iterations =  2.0

     total cpu time spent up to now is      317.9 secs

     total energy              =   -1175.51125505 Ry
     estimated scf accuracy    <       0.00000636 Ry

     total magnetization       =     0.49 Bohr mag/cell
     absolute magnetization    =     0.58 Bohr mag/cell

     iteration # 14     ecut=    90.00 Ry     beta= 0.40
     Davidson diagonalization with overlap
     ethr =  6.87E-09,  avg # of iterations =  2.6

     total cpu time spent up to now is      339.8 secs

     total energy              =   -1175.51126077 Ry
     estimated scf accuracy    <       0.00000264 Ry

     total magnetization       =     0.47 Bohr mag/cell
     absolute magnetization    =     0.55 Bohr mag/cell

     iteration # 15     ecut=    90.00 Ry     beta= 0.40
     Davidson diagonalization with overlap
     ethr =  2.85E-09,  avg # of iterations =  2.9

     total cpu time spent up to now is      362.1 secs

     total energy              =   -1175.51126583 Ry
     estimated scf accuracy    <       0.00000060 Ry

     total magnetization       =     0.49 Bohr mag/cell
     absolute magnetization    =     0.58 Bohr mag/cell

     iteration # 16     ecut=    90.00 Ry     beta= 0.40
     Davidson diagonalization with overlap
     ethr =  6.45E-10,  avg # of iterations =  2.1

     total cpu time spent up to now is      381.0 secs

     total energy              =   -1175.51126604 Ry
     estimated scf accuracy    <       0.00000008 Ry

     total magnetization       =     0.48 Bohr mag/cell
     absolute magnetization    =     0.57 Bohr mag/cell

     iteration # 17     ecut=    90.00 Ry     beta= 0.40
     Davidson diagonalization with overlap
     ethr =  8.33E-11,  avg # of iterations =  3.0

     total cpu time spent up to now is      402.6 secs

     total energy              =   -1175.51126613 Ry
     estimated scf accuracy    <          3.7E-09 Ry

     total magnetization       =     0.48 Bohr mag/cell
     absolute magnetization    =     0.57 Bohr mag/cell

     iteration # 18     ecut=    90.00 Ry     beta= 0.40
     Davidson diagonalization with overlap
     ethr =  4.01E-12,  avg # of iterations =  2.7

     total cpu time spent up to now is      424.1 secs

     total energy              =   -1175.51126613 Ry
     estimated scf accuracy    <          8.9E-10 Ry

     total magnetization       =     0.48 Bohr mag/cell
     absolute magnetization    =     0.57 Bohr mag/cell

     iteration # 19     ecut=    90.00 Ry     beta= 0.40
     Davidson diagonalization with overlap
     ethr =  9.65E-13,  avg # of iterations =  2.1

     total cpu time spent up to now is      444.9 secs

     total energy              =   -1175.51126613 Ry
     estimated scf accuracy    <          1.4E-10 Ry

     total magnetization       =     0.48 Bohr mag/cell
     absolute magnetization    =     0.57 Bohr mag/cell

     iteration # 20     ecut=    90.00 Ry     beta= 0.40
     Davidson diagonalization with overlap
     ethr =  1.56E-13,  avg # of iterations =  2.1

     Magnetic moment per site  (integrated on atomic sphere of radius R)
     atom   1 (R=0.205)  charge= 15.9417  magn=  0.1730
     atom   2 (R=0.205)  charge= 15.9417  magn=  0.1730
     atom   3 (R=0.205)  charge= 15.9417  magn=  0.1730
     atom   4 (R=0.205)  charge= 11.1662  magn= -0.0068
     atom   5 (R=0.205)  charge= 11.2206  magn= -0.0036
     atom   6 (R=0.205)  charge= 11.2206  magn= -0.0036

     total cpu time spent up to now is      464.8 secs

     End of self-consistent calculation

     Number of k-points >= 100: set verbosity='high' to print the bands.

     the Fermi energy is    16.5252 ev

!    total energy              =   -1175.51126613 Ry
     estimated scf accuracy    <          3.0E-11 Ry
     smearing contrib. (-TS)   =       0.00254835 Ry
     internal energy E=F+TS    =   -1175.51381448 Ry

     The total energy is F=E-TS. E is the sum of the following terms:
     one-electron contribution =    -590.26641736 Ry
     hartree contribution      =     347.81389736 Ry
     xc contribution           =    -127.00798430 Ry
     ewald contribution        =    -806.05331018 Ry

     total magnetization       =     0.48 Bohr mag/cell
     absolute magnetization    =     0.57 Bohr mag/cell

     convergence has been achieved in  20 iterations

     Forces acting on atoms (cartesian axes, Ry/au):

     atom    1 type  1   force =     0.00000000   -0.00000000   -0.00000000
     atom    2 type  1   force =     0.00000000    0.00000000   -0.00000000
     atom    3 type  1   force =     0.00000000    0.00000000    0.00000000
     atom    4 type  2   force =    -0.00000000    0.00000000    0.00000000
     atom    5 type  2   force =     0.00000000    0.00000000    0.00000000
     atom    6 type  2   force =     0.00000000    0.00000000    0.00000000

     Total force =     0.000000     Total SCF correction =     0.000000


     Computing stress (Cartesian axis) and pressure

          total   stress  (Ry/bohr**3)                   (kbar)     P=     -125.62
  -0.00083144   0.00000000   0.00000000         -122.31        0.00        0.00
   0.00000000  -0.00083144   0.00000000            0.00     -122.31        0.00
   0.00000000   0.00000000  -0.00089890            0.00        0.00     -132.23


     Writing all to output data dir ./out/cosn.save/ :
     XML data file, charge density, pseudopotentials, collected wavefunctions

     init_run     :      7.02s CPU      7.28s WALL (       1 calls)
     electrons    :    443.27s CPU    457.54s WALL (       1 calls)
     forces       :      2.45s CPU      2.48s WALL (       1 calls)
     stress       :      8.87s CPU      8.92s WALL (       1 calls)

     Called by init_run:
     wfcinit      :      6.81s CPU      7.06s WALL (       1 calls)
     potinit      :      0.03s CPU      0.03s WALL (       1 calls)
     hinit0       :      0.10s CPU      0.11s WALL (       1 calls)

     Called by electrons:
     c_bands      :    395.47s CPU    407.58s WALL (      20 calls)
     sum_band     :     47.32s CPU     49.46s WALL (      20 calls)
     v_of_rho     :      0.38s CPU      0.39s WALL (      21 calls)
     mix_rho      :      0.10s CPU      0.11s WALL (      20 calls)

     Called by c_bands:
     init_us_2    :      7.86s CPU      7.96s WALL (   11438 calls)
     cegterg      :    376.96s CPU    388.99s WALL (    5320 calls)

     Called by *egterg:
     cdiaghg      :     28.88s CPU     28.91s WALL (   20171 calls)
     h_psi        :    262.48s CPU    274.15s WALL (   20437 calls)
     g_psi        :      2.66s CPU      2.67s WALL (   14851 calls)

     Called by h_psi:
     h_psi:calbec :     26.08s CPU     26.84s WALL (   20437 calls)
     vloc_psi     :    220.92s CPU    231.74s WALL (   20437 calls)
                                        0.00s GPU  (   20437 calls)
     add_vuspsi   :     13.56s CPU     13.61s WALL (   20437 calls)

     General routines
     calbec       :     34.31s CPU     35.15s WALL (   24959 calls)
     fft          :      0.22s CPU      0.23s WALL (     408 calls)
     ffts         :      0.01s CPU      0.01s WALL (      40 calls)
     fftw         :    245.31s CPU    257.32s WALL ( 1889690 calls)

     Parallel routines

     PWSCF        :   7m41.95s CPU   7m56.90s WALL


   This run was terminated on:   3:35:34  16Jun2026            

=------------------------------------------------------------------------------=
   JOB DONE.
=------------------------------------------------------------------------------=
Note: The following floating-point exceptions are signalling: IEEE_DENORMAL
Note: The following floating-point exceptions are signalling: IEEE_DENORMAL
Note: The following floating-point exceptions are signalling: IEEE_DENORMAL
Note: The following floating-point exceptions are signalling: IEEE_DENORMAL
