
     Program PWSCF v.7.5 starts on 15Jun2026 at  3:15:20 

     This program is part of the open-source Quantum ESPRESSO suite
     for quantum simulation of materials; please cite
         "P. Giannozzi et al., J. Phys.:Condens. Matter 21 395502 (2009);
         "P. Giannozzi et al., J. Phys.:Condens. Matter 29 465901 (2017);
         "P. Giannozzi et al., J. Chem. Phys. 152 154105 (2020);
          URL http://www.quantum-espresso.org", 
     in publications or presentations arising from this work. More details at
     http://www.quantum-espresso.org/quote

     Parallel version (MPI & OpenMP), running on      10 processor cores
     Number of MPI processes:                10
     Threads/MPI process:                     1

     MPI processes distributed on     1 nodes
     33169 MiB available memory on the printing compute node when the environment starts

     Reading input from vc-relax.in

     Current dimensions of program PWSCF are:
     Max number of different atomic species (ntypx) = 10
     Max number of k-points (npk) =  40000
     Max angular momentum in pseudopotentials (lmaxx) =  4
     file Ca.pbe-spn-rrkjus_psl.1.0.0.UPF: wavefunction(s)  3S renormalized

     R & G space division:  proc/nbgrp/npool/nimage =      10
     Subspace diagonalization in iterative solution of the eigenvalue problem:
     a serial algorithm will be used


     Parallelization info
     --------------------
     sticks:   dense  smooth     PW     G-vecs:    dense   smooth      PW
     Min         155      76     24                 4052     1430     244
     Max         156      77     25                 4054     1434     247
     Sum        1555     769    241                40533    14331    2445

     Using Slab Decomposition



     bravais-lattice index     =            2
     lattice parameter (alat)  =       8.4000  a.u.
     unit-cell volume          =     148.1760 (a.u.)^3
     number of atoms/cell      =           11
     number of atomic types    =            2
     number of electrons       =        20.00
     number of Kohn-Sham states=           14
     kinetic-energy cutoff     =      80.0000  Ry
     charge density cutoff     =     640.0000  Ry
     scf convergence threshold =      1.0E-09
     mixing beta               =       0.3000
     number of iterations used =            8  plain     mixing
     energy convergence thresh.=      1.0E-06
     force convergence thresh. =      1.0E-04
     press convergence thresh. =      5.0E-01
     Exchange-correlation= PBE
                           (   1   4   3   4   0   0   0)
     nstep                     =          200


     celldm(1)=   8.400000  celldm(2)=   0.000000  celldm(3)=   0.000000
     celldm(4)=   0.000000  celldm(5)=   0.000000  celldm(6)=   0.000000

     crystal axes: (cart. coord. in units of alat)
               a(1) = (  -0.500000   0.000000   0.500000 )  
               a(2) = (   0.000000   0.500000   0.500000 )  
               a(3) = (  -0.500000   0.500000   0.000000 )  

     reciprocal axes: (cart. coord. in units 2 pi/alat)
               b(1) = ( -1.000000 -1.000000  1.000000 )  
               b(2) = (  1.000000  1.000000  1.000000 )  
               b(3) = ( -1.000000  1.000000 -1.000000 )  


     PseudoPot. # 1 for Ca read from file:
     ./pseudo/Ca.pbe-spn-rrkjus_psl.1.0.0.UPF
     MD5 check sum: be476cbee6758b394af5fd17922f3fca
     Pseudo is Ultrasoft + core correction, Zval = 10.0
     Generated using &quot;atomic&quot; code by A. Dal Corso  v.6.2.2
     Using radial grid of 1169 points,  6 beta functions with: 
                l(1) =   0
                l(2) =   0
                l(3) =   1
                l(4) =   1
                l(5) =   2
                l(6) =   2
     Q(r) pseudized with 0 coefficients 


     PseudoPot. # 2 for H  read from file:
     ./pseudo/H.pbe-rrkjus_psl.1.0.0.UPF
     MD5 check sum: 3f4114867bd07edc7f1424d066fc1888
     Pseudo is Ultrasoft, Zval =  1.0
     Generated using &quot;atomic&quot; code by A. Dal Corso  v.6.3MaX
     Using radial grid of  929 points,  2 beta functions with: 
                l(1) =   0
                l(2) =   0
     Q(r) pseudized with 0 coefficients 


     atomic species   valence    mass     pseudopotential
     Ca               10.00    40.07800     Ca( 1.00)
     H                 1.00     1.00800     H ( 1.00)

     12 Sym. Ops., with inversion, found



   Cartesian axes

     site n.     atom                  positions (alat units)
         1        Ca     tau(   1) = (   0.0000000   0.0000000   0.0000000  )
         2        H      tau(   2) = (  -0.2500000   0.2500000   0.2500000  )
         3        H      tau(   3) = (  -0.7500000   0.7500000   0.7500000  )
         4        H      tau(   4) = (  -0.3750000   0.3750000   0.3750000  )
         5        H      tau(   5) = (  -0.6250000   0.6250000   0.6250000  )
         6        H      tau(   6) = (  -0.5000000   0.5000000   0.3750000  )
         7        H      tau(   7) = (  -0.5000000   0.5000000   0.6250000  )
         8        H      tau(   8) = (  -0.3750000   0.5000000   0.5000000  )
         9        H      tau(   9) = (  -0.6250000   0.5000000   0.5000000  )
        10        H      tau(  10) = (  -0.5000000   0.3750000   0.5000000  )
        11        H      tau(  11) = (  -0.5000000   0.6250000   0.5000000  )

     number of k points=   189  Methfessel-Paxton smearing, width (Ry)=  0.0200

     Number of k-points >= 100: set verbosity='high' to print them.

     Dense  grid:    40533 G-vectors     FFT dimensions: (  48,  48,  48)

     Smooth grid:    14331 G-vectors     FFT dimensions: (  36,  36,  36)

     Estimated max dynamical RAM per process >      31.37 MB

     Estimated total dynamical RAM >     313.72 MB

     Initial potential from superposition of free atoms

     starting charge      19.9950, renormalised to      20.0000
     Starting wfcs are   18 randomized atomic wfcs

     total cpu time spent up to now is        2.5 secs

     per-process dynamical memory:    31.5 Mb

     Self-consistent Calculation

     iteration #  1     ecut=    80.00 Ry     beta= 0.30
     Davidson diagonalization with overlap
     ethr =  1.00E-02,  avg # of iterations =  8.7

     total cpu time spent up to now is        8.3 secs

     total energy              =     -83.82669799 Ry
     estimated scf accuracy    <       1.11447081 Ry

     iteration #  2     ecut=    80.00 Ry     beta= 0.30
     Davidson diagonalization with overlap
     ethr =  5.57E-03,  avg # of iterations =  1.7

     total cpu time spent up to now is       11.1 secs

     total energy              =     -83.74598979 Ry
     estimated scf accuracy    <       0.27330997 Ry

     iteration #  3     ecut=    80.00 Ry     beta= 0.30
     Davidson diagonalization with overlap
     ethr =  1.37E-03,  avg # of iterations =  6.0

     total cpu time spent up to now is       15.7 secs

     total energy              =     -83.84046221 Ry
     estimated scf accuracy    <       0.03232627 Ry

     iteration #  4     ecut=    80.00 Ry     beta= 0.30
     Davidson diagonalization with overlap
     ethr =  1.62E-04,  avg # of iterations =  6.7

     total cpu time spent up to now is       20.4 secs

     total energy              =     -83.85134864 Ry
     estimated scf accuracy    <       0.00601559 Ry

     iteration #  5     ecut=    80.00 Ry     beta= 0.30
     Davidson diagonalization with overlap
     ethr =  3.01E-05,  avg # of iterations =  5.5

     total cpu time spent up to now is       24.7 secs

     total energy              =     -83.85254681 Ry
     estimated scf accuracy    <       0.00091876 Ry

     iteration #  6     ecut=    80.00 Ry     beta= 0.30
     Davidson diagonalization with overlap
     c_bands:  1 eigenvalues not converged
     c_bands:  1 eigenvalues not converged
     c_bands:  1 eigenvalues not converged
     ethr =  4.59E-06,  avg # of iterations =  6.0

     total cpu time spent up to now is       28.8 secs

     total energy              =     -83.85220303 Ry
     estimated scf accuracy    <       0.00062770 Ry

     iteration #  7     ecut=    80.00 Ry     beta= 0.30
     Davidson diagonalization with overlap
     ethr =  3.14E-06,  avg # of iterations =  4.5

     total cpu time spent up to now is       33.0 secs

     total energy              =     -83.85243414 Ry
     estimated scf accuracy    <       0.00020199 Ry

     iteration #  8     ecut=    80.00 Ry     beta= 0.30
     Davidson diagonalization with overlap
     ethr =  1.01E-06,  avg # of iterations =  3.0

     total cpu time spent up to now is       36.3 secs

     total energy              =     -83.85244603 Ry
     estimated scf accuracy    <       0.00003692 Ry

     iteration #  9     ecut=    80.00 Ry     beta= 0.30
     Davidson diagonalization with overlap
     ethr =  1.85E-07,  avg # of iterations =  3.7

     total cpu time spent up to now is       39.9 secs

     total energy              =     -83.85245988 Ry
     estimated scf accuracy    <       0.00000030 Ry

     iteration # 10     ecut=    80.00 Ry     beta= 0.30
     Davidson diagonalization with overlap
     c_bands:  1 eigenvalues not converged
     ethr =  1.49E-09,  avg # of iterations =  7.3

     total cpu time spent up to now is       45.9 secs

     total energy              =     -83.85246124 Ry
     estimated scf accuracy    <       0.00000024 Ry

     iteration # 11     ecut=    80.00 Ry     beta= 0.30
     Davidson diagonalization with overlap
     ethr =  1.19E-09,  avg # of iterations =  5.0

     total cpu time spent up to now is       50.1 secs

     total energy              =     -83.85246127 Ry
     estimated scf accuracy    <       0.00000027 Ry

     iteration # 12     ecut=    80.00 Ry     beta= 0.30
     Davidson diagonalization with overlap
     ethr =  1.19E-09,  avg # of iterations =  2.3

     total cpu time spent up to now is       53.4 secs

     End of self-consistent calculation

     Number of k-points >= 100: set verbosity='high' to print the bands.

     the Fermi energy is    18.7930 ev

!    total energy              =     -83.85246134 Ry
     estimated scf accuracy    <          2.3E-10 Ry
     smearing contrib. (-TS)   =       0.00023489 Ry
     internal energy E=F+TS    =     -83.85269623 Ry

     The total energy is F=E-TS. E is the sum of the following terms:
     one-electron contribution =       6.20463371 Ry
     hartree contribution      =      10.95710773 Ry
     xc contribution           =     -22.14634172 Ry
     ewald contribution        =     -78.86809594 Ry

     convergence has been achieved in  12 iterations

     Forces acting on atoms (cartesian axes, Ry/au):

     atom    1 type  1   force =     0.00000000    0.00000000    0.00000000
     atom    2 type  2   force =     0.02018822   -0.02018822   -0.02018822
     atom    3 type  2   force =    -0.02018822    0.02018822    0.02018822
     atom    4 type  2   force =     0.26192260   -0.26192260   -0.26192260
     atom    5 type  2   force =    -0.26192260    0.26192260    0.26192260
     atom    6 type  2   force =    -0.18528554    0.18528554   -0.55868202
     atom    7 type  2   force =     0.18528554   -0.18528554    0.55868202
     atom    8 type  2   force =     0.55868202    0.18528554    0.18528554
     atom    9 type  2   force =    -0.55868202   -0.18528554   -0.18528554
     atom   10 type  2   force =    -0.18528554   -0.55868202    0.18528554
     atom   11 type  2   force =     0.18528554    0.55868202   -0.18528554

     Total force =     1.642799     Total SCF correction =     0.000001


     Computing stress (Cartesian axis) and pressure

          total   stress  (Ry/bohr**3)                   (kbar)     P=     4493.91
   0.03054895  -0.00146891  -0.00146891         4493.91     -216.08     -216.08
  -0.00146891   0.03054895   0.00146891         -216.08     4493.91      216.08
  -0.00146891   0.00146891   0.03054895         -216.08      216.08     4493.91


     BFGS Geometry Optimization
     Energy error            =      4.1E+00 Ry
     Gradient error          =      5.6E-01 Ry/Bohr
     Cell gradient error     =      2.0E+03 kbar

     number of scf cycles    =   1
     number of bfgs steps    =   0

     enthalpy           new  =     -81.3342613943 Ry

     new trust radius        =       0.5000000000 bohr
     new conv_thr            =       0.0000000010 Ry

     new unit-cell volume =    257.72165 a.u.^3 (    38.19041 Ang^3 )
     density =      2.18090 g/cm^3

CELL_PARAMETERS (alat=  8.40000000)
  -0.612503270   0.022000268   0.612503270
  -0.022000268   0.612503270   0.612503270
  -0.612503270   0.612503270   0.022000268

ATOMIC_POSITIONS (crystal)
Ca               0.0000000000        0.0000000000        0.0000000000
H                0.2485601704        0.2485601704        0.2485601704
H                0.7514398296        0.7514398296        0.7514398296
H                0.3563196023        0.3563196023        0.3563196023
H                0.6436803977        0.6436803977        0.6436803977
H                0.3351546316        0.3351546316        0.6912746077
H                0.6648453684        0.6648453684        0.3087253923
H                0.3351546316        0.6912746077        0.3351546316
H                0.6648453684        0.3087253923        0.6648453684
H                0.6912746077        0.3351546316        0.3351546316
H                0.3087253923        0.6648453684        0.6648453684



     Writing config-only to output data dir ./out/cah10.save/ :
     XML data file
     NEW-OLD atomic charge density approx. for the potential
     New effective cutoffs (rho, wfc):  457.25   57.35

     total cpu time spent up to now is       54.9 secs

     per-process dynamical memory:    44.4 Mb

     Self-consistent Calculation

     iteration #  1     ecut=    80.00 Ry     beta= 0.30
     Davidson diagonalization with overlap
     c_bands:  1 eigenvalues not converged
     c_bands:  5 eigenvalues not converged
     c_bands:  2 eigenvalues not converged
     c_bands:  1 eigenvalues not converged
     c_bands:  1 eigenvalues not converged
     c_bands:  2 eigenvalues not converged
     c_bands:  4 eigenvalues not converged
     c_bands:  2 eigenvalues not converged
     c_bands:  2 eigenvalues not converged
     c_bands:  1 eigenvalues not converged
     c_bands:  2 eigenvalues not converged
     c_bands:  1 eigenvalues not converged
     c_bands:  1 eigenvalues not converged
     c_bands:  2 eigenvalues not converged
     c_bands:  1 eigenvalues not converged
     c_bands:  2 eigenvalues not converged
     c_bands:  1 eigenvalues not converged
     c_bands:  1 eigenvalues not converged
     c_bands:  1 eigenvalues not converged
     c_bands:  2 eigenvalues not converged
     c_bands:  3 eigenvalues not converged
     c_bands:  4 eigenvalues not converged
     c_bands:  1 eigenvalues not converged
     c_bands:  2 eigenvalues not converged
     c_bands:  1 eigenvalues not converged
     c_bands:  1 eigenvalues not converged
     c_bands:  3 eigenvalues not converged
     c_bands:  2 eigenvalues not converged
     c_bands:  1 eigenvalues not converged
     c_bands:  1 eigenvalues not converged
     c_bands:  2 eigenvalues not converged
     c_bands:  1 eigenvalues not converged
     c_bands:  1 eigenvalues not converged
     c_bands:  1 eigenvalues not converged
     c_bands:  2 eigenvalues not converged
     c_bands:  1 eigenvalues not converged
     c_bands:  1 eigenvalues not converged
     c_bands:  1 eigenvalues not converged
     c_bands:  2 eigenvalues not converged
     c_bands:  1 eigenvalues not converged
     c_bands:  2 eigenvalues not converged
     c_bands:  3 eigenvalues not converged
     c_bands:  1 eigenvalues not converged
     c_bands:  1 eigenvalues not converged
     c_bands:  1 eigenvalues not converged
     c_bands:  2 eigenvalues not converged
     c_bands:  2 eigenvalues not converged
     c_bands:  1 eigenvalues not converged
     c_bands:  3 eigenvalues not converged
     c_bands:  1 eigenvalues not converged
     c_bands:  1 eigenvalues not converged
     c_bands:  1 eigenvalues not converged
     c_bands:  2 eigenvalues not converged
     c_bands:  1 eigenvalues not converged
     c_bands:  2 eigenvalues not converged
     c_bands:  1 eigenvalues not converged
     c_bands:  1 eigenvalues not converged
     c_bands:  1 eigenvalues not converged
     c_bands:  1 eigenvalues not converged
     c_bands:  1 eigenvalues not converged
     c_bands:  1 eigenvalues not converged
     c_bands:  1 eigenvalues not converged
     c_bands:  1 eigenvalues not converged
     c_bands:  1 eigenvalues not converged
     c_bands:  1 eigenvalues not converged
     c_bands:  1 eigenvalues not converged
     c_bands:  1 eigenvalues not converged
     c_bands:  2 eigenvalues not converged
     c_bands:  1 eigenvalues not converged
     c_bands:  1 eigenvalues not converged
     c_bands:  1 eigenvalues not converged
     c_bands:  2 eigenvalues not converged
     c_bands:  1 eigenvalues not converged
     c_bands:  2 eigenvalues not converged
     c_bands:  1 eigenvalues not converged
     c_bands:  1 eigenvalues not converged
     c_bands:  2 eigenvalues not converged
     c_bands:  1 eigenvalues not converged
     c_bands:  1 eigenvalues not converged
     c_bands:  1 eigenvalues not converged
     c_bands:  1 eigenvalues not converged
     c_bands:  2 eigenvalues not converged
     c_bands:  2 eigenvalues not converged
     c_bands:  1 eigenvalues not converged
     c_bands:  2 eigenvalues not converged
     c_bands:  1 eigenvalues not converged
     c_bands:  1 eigenvalues not converged
     c_bands:  2 eigenvalues not converged
     c_bands:  1 eigenvalues not converged
     c_bands:  1 eigenvalues not converged
     c_bands:  1 eigenvalues not converged
     c_bands:  1 eigenvalues not converged
     c_bands:  2 eigenvalues not converged
     c_bands:  3 eigenvalues not converged
     c_bands:  1 eigenvalues not converged
     c_bands:  3 eigenvalues not converged
     c_bands:  1 eigenvalues not converged
     c_bands:  1 eigenvalues not converged
     c_bands:  1 eigenvalues not converged
     c_bands:  1 eigenvalues not converged
     c_bands:  3 eigenvalues not converged
     c_bands:  3 eigenvalues not converged
     c_bands:  1 eigenvalues not converged
     c_bands:  1 eigenvalues not converged
     c_bands:  2 eigenvalues not converged
     c_bands:  1 eigenvalues not converged
     c_bands:  2 eigenvalues not converged
     c_bands:  1 eigenvalues not converged
     c_bands:  4 eigenvalues not converged
     c_bands:  1 eigenvalues not converged
     c_bands:  2 eigenvalues not converged
     c_bands:  1 eigenvalues not converged
     c_bands:  1 eigenvalues not converged
     c_bands:  2 eigenvalues not converged
     c_bands:  1 eigenvalues not converged
     c_bands:  2 eigenvalues not converged
     ethr =  1.00E-06,  avg # of iterations = 19.2

     total cpu time spent up to now is       71.8 secs

     total energy              =     -85.84904387 Ry
     estimated scf accuracy    <       0.39477388 Ry

     iteration #  2     ecut=    80.00 Ry     beta= 0.30
     Davidson diagonalization with overlap
     ethr =  1.97E-03,  avg # of iterations =  1.1

     total cpu time spent up to now is       74.4 secs

     total energy              =     -85.83011295 Ry
     estimated scf accuracy    <       0.08325179 Ry

     iteration #  3     ecut=    80.00 Ry     beta= 0.30
     Davidson diagonalization with overlap
     ethr =  4.16E-04,  avg # of iterations =  4.7

     total cpu time spent up to now is       78.6 secs

     total energy              =     -85.85651530 Ry
     estimated scf accuracy    <       0.01174992 Ry

     iteration #  4     ecut=    80.00 Ry     beta= 0.30
     Davidson diagonalization with overlap
     ethr =  5.87E-05,  avg # of iterations =  4.0

     total cpu time spent up to now is       82.6 secs

     total energy              =     -85.85893307 Ry
     estimated scf accuracy    <       0.00370843 Ry

     iteration #  5     ecut=    80.00 Ry     beta= 0.30
     Davidson diagonalization with overlap
     ethr =  1.85E-05,  avg # of iterations =  6.0

     total cpu time spent up to now is       87.1 secs

     total energy              =     -85.86024998 Ry
     estimated scf accuracy    <       0.00037074 Ry

     iteration #  6     ecut=    80.00 Ry     beta= 0.30
     Davidson diagonalization with overlap
     c_bands:  1 eigenvalues not converged
     c_bands:  1 eigenvalues not converged
     c_bands:  1 eigenvalues not converged
     c_bands:  1 eigenvalues not converged
     c_bands:  1 eigenvalues not converged
     c_bands:  1 eigenvalues not converged
     ethr =  1.85E-06,  avg # of iterations =  8.1

     total cpu time spent up to now is       92.4 secs

     total energy              =     -85.86001400 Ry
     estimated scf accuracy    <       0.00063731 Ry

     iteration #  7     ecut=    80.00 Ry     beta= 0.30
     Davidson diagonalization with overlap
     ethr =  1.85E-06,  avg # of iterations =  3.7

     total cpu time spent up to now is       96.1 secs

     total energy              =     -85.86015431 Ry
     estimated scf accuracy    <       0.00000688 Ry

     iteration #  8     ecut=    80.00 Ry     beta= 0.30
     Davidson diagonalization with overlap
     ethr =  3.44E-08,  avg # of iterations =  7.0

     total cpu time spent up to now is      101.4 secs

     total energy              =     -85.86018200 Ry
     estimated scf accuracy    <       0.00000765 Ry

     iteration #  9     ecut=    80.00 Ry     beta= 0.30
     Davidson diagonalization with overlap
     ethr =  3.44E-08,  avg # of iterations =  2.5

     total cpu time spent up to now is      104.5 secs

     total energy              =     -85.86017023 Ry
     estimated scf accuracy    <       0.00001828 Ry

     iteration # 10     ecut=    80.00 Ry     beta= 0.30
     Davidson diagonalization with overlap
     ethr =  3.44E-08,  avg # of iterations =  6.8

     total cpu time spent up to now is      109.8 secs

     total energy              =     -85.86015962 Ry
     estimated scf accuracy    <       0.00006548 Ry

     iteration # 11     ecut=    80.00 Ry     beta= 0.30
     Davidson diagonalization with overlap
     ethr =  3.44E-08,  avg # of iterations =  6.1

     total cpu time spent up to now is      114.7 secs

     total energy              =     -85.86017635 Ry
     estimated scf accuracy    <       0.00000024 Ry

     iteration # 12     ecut=    80.00 Ry     beta= 0.30
     Davidson diagonalization with overlap
     ethr =  1.22E-09,  avg # of iterations =  8.0

     total cpu time spent up to now is      120.8 secs

     total energy              =     -85.86017290 Ry
     estimated scf accuracy    <       0.00000536 Ry

     iteration # 13     ecut=    80.00 Ry     beta= 0.30
     Davidson diagonalization with overlap
     c_bands:  1 eigenvalues not converged
     c_bands:  1 eigenvalues not converged
     c_bands:  1 eigenvalues not converged
     ethr =  1.22E-09,  avg # of iterations =  9.8

     total cpu time spent up to now is      128.2 secs

     total energy              =     -85.86017369 Ry
     estimated scf accuracy    <       0.00000955 Ry

     iteration # 14     ecut=    80.00 Ry     beta= 0.30
     Davidson diagonalization with overlap
     ethr =  1.22E-09,  avg # of iterations =  7.4

     total cpu time spent up to now is      134.1 secs

     total energy              =     -85.86017561 Ry
     estimated scf accuracy    <       0.00000005 Ry

     iteration # 15     ecut=    80.00 Ry     beta= 0.30
     Davidson diagonalization with overlap
     ethr =  2.48E-10,  avg # of iterations =  4.4

     total cpu time spent up to now is      138.1 secs

     total energy              =     -85.86017554 Ry
     estimated scf accuracy    <       0.00000039 Ry

     iteration # 16     ecut=    80.00 Ry     beta= 0.30
     Davidson diagonalization with overlap
     ethr =  2.48E-10,  avg # of iterations =  2.1

     total cpu time spent up to now is      141.0 secs

     total energy              =     -85.86017549 Ry
     estimated scf accuracy    <       0.00000019 Ry

     iteration # 17     ecut=    80.00 Ry     beta= 0.30
     Davidson diagonalization with overlap
     ethr =  2.48E-10,  avg # of iterations =  3.8

     total cpu time spent up to now is      144.4 secs

     total energy              =     -85.86017549 Ry
     estimated scf accuracy    <       0.00000005 Ry

     iteration # 18     ecut=    80.00 Ry     beta= 0.30
     Davidson diagonalization with overlap
     ethr =  2.48E-10,  avg # of iterations =  1.6

     total cpu time spent up to now is      147.1 secs

     total energy              =     -85.86017548 Ry
     estimated scf accuracy    <       0.00000002 Ry

     iteration # 19     ecut=    80.00 Ry     beta= 0.30
     Davidson diagonalization with overlap
     ethr =  1.18E-10,  avg # of iterations =  4.8

     total cpu time spent up to now is      151.1 secs

     End of self-consistent calculation

     Number of k-points >= 100: set verbosity='high' to print the bands.

     the Fermi energy is    10.2878 ev

!    total energy              =     -85.86017550 Ry
     estimated scf accuracy    <          6.0E-10 Ry
     smearing contrib. (-TS)   =       0.00011783 Ry
     internal energy E=F+TS    =     -85.86029332 Ry

     The total energy is F=E-TS. E is the sum of the following terms:
     one-electron contribution =     -12.64899424 Ry
     hartree contribution      =      14.67785115 Ry
     xc contribution           =     -20.06320543 Ry
     ewald contribution        =     -67.82594481 Ry

     convergence has been achieved in  19 iterations

     Forces acting on atoms (cartesian axes, Ry/au):

     atom    1 type  1   force =    -0.00000000   -0.00000000    0.00000000
     atom    2 type  2   force =    -0.02246940    0.02246940    0.02246940
     atom    3 type  2   force =     0.02246940   -0.02246940   -0.02246940
     atom    4 type  2   force =     0.04805238   -0.04805238   -0.04805238
     atom    5 type  2   force =    -0.04805238    0.04805238    0.04805238
     atom    6 type  2   force =    -0.03931802    0.03931802    0.06603547
     atom    7 type  2   force =     0.03931802   -0.03931802   -0.06603547
     atom    8 type  2   force =    -0.06603547    0.03931802    0.03931802
     atom    9 type  2   force =     0.06603547   -0.03931802   -0.03931802
     atom   10 type  2   force =    -0.03931802    0.06603547    0.03931802
     atom   11 type  2   force =     0.03931802   -0.06603547   -0.03931802

     Total force =     0.248190     Total SCF correction =     0.000009


     Computing stress (Cartesian axis) and pressure

          total   stress  (Ry/bohr**3)                   (kbar)     P=      701.27
   0.00476715  -0.00021507  -0.00021507          701.27      -31.64      -31.64
  -0.00021507   0.00476715   0.00021507          -31.64      701.27       31.64
  -0.00021507   0.00021507   0.00476715          -31.64       31.64      701.27

     Energy error            =      1.5E-01 Ry
     Gradient error          =      6.6E-02 Ry/Bohr
     Cell gradient error     =      1.8E+03 kbar

     number of scf cycles    =   2
     number of bfgs steps    =   1

     enthalpy           old  =     -81.3342613943 Ry
     enthalpy           new  =     -81.4802850718 Ry

     CASE: enthalpy          _new < enthalpy          _old

     new trust radius        =       0.4764763801 bohr
     new conv_thr            =       0.0000000010 Ry

     new unit-cell volume =    160.47626 a.u.^3 (    23.78013 Ang^3 )
     density =      3.50248 g/cm^3

CELL_PARAMETERS (alat=  8.40000000)
  -0.536197048   0.043652801   0.536197048
  -0.043652801   0.536197048   0.536197048
  -0.536197048   0.536197048   0.043652801

ATOMIC_POSITIONS (crystal)
Ca               0.0000000000       -0.0000000000       -0.0000000000
H                0.2499218325        0.2499218325        0.2499218325
H                0.7500781675        0.7500781675        0.7500781675
H                0.3418242189        0.3418242189        0.3418242189
H                0.6581757811        0.6581757811        0.6581757811
H                0.3201086618        0.3201086618        0.7279268798
H                0.6798913382        0.6798913382        0.2720731202
H                0.3201086618        0.7279268798        0.3201086618
H                0.6798913382        0.2720731202        0.6798913382
H                0.7279268798        0.3201086618        0.3201086618
H                0.2720731202        0.6798913382        0.6798913382



     Writing config-only to output data dir ./out/cah10.save/ :
     XML data file
     NEW-OLD atomic charge density approx. for the potential
     New effective cutoffs (rho, wfc):  657.12   82.42

     total cpu time spent up to now is      152.7 secs

     per-process dynamical memory:    45.0 Mb

     Self-consistent Calculation

     iteration #  1     ecut=    80.00 Ry     beta= 0.30
     Davidson diagonalization with overlap
     c_bands:  2 eigenvalues not converged
     c_bands:  2 eigenvalues not converged
     c_bands:  1 eigenvalues not converged
     c_bands:  1 eigenvalues not converged
     c_bands:  1 eigenvalues not converged
     c_bands:  1 eigenvalues not converged
     c_bands:  1 eigenvalues not converged
     c_bands:  1 eigenvalues not converged
     c_bands:  1 eigenvalues not converged
     c_bands:  1 eigenvalues not converged
     c_bands:  1 eigenvalues not converged
     c_bands:  1 eigenvalues not converged
     c_bands:  1 eigenvalues not converged
     c_bands:  1 eigenvalues not converged
     c_bands:  1 eigenvalues not converged
     c_bands:  1 eigenvalues not converged
     c_bands:  1 eigenvalues not converged
     c_bands:  1 eigenvalues not converged
     c_bands:  2 eigenvalues not converged
     c_bands:  1 eigenvalues not converged
     c_bands:  1 eigenvalues not converged
     c_bands:  1 eigenvalues not converged
     c_bands:  2 eigenvalues not converged
     c_bands:  1 eigenvalues not converged
     c_bands:  2 eigenvalues not converged
     c_bands:  2 eigenvalues not converged
     c_bands:  1 eigenvalues not converged
     c_bands:  1 eigenvalues not converged
     c_bands:  2 eigenvalues not converged
     c_bands:  1 eigenvalues not converged
     c_bands:  1 eigenvalues not converged
     c_bands:  2 eigenvalues not converged
     c_bands:  1 eigenvalues not converged
     c_bands:  2 eigenvalues not converged
     c_bands:  2 eigenvalues not converged
     c_bands:  1 eigenvalues not converged
     c_bands:  1 eigenvalues not converged
     c_bands:  1 eigenvalues not converged
     c_bands:  1 eigenvalues not converged
     c_bands:  1 eigenvalues not converged
     c_bands:  1 eigenvalues not converged
     c_bands:  1 eigenvalues not converged
     c_bands:  1 eigenvalues not converged
     c_bands:  1 eigenvalues not converged
     c_bands:  1 eigenvalues not converged
     c_bands:  2 eigenvalues not converged
     c_bands:  1 eigenvalues not converged
     c_bands:  2 eigenvalues not converged
     c_bands:  1 eigenvalues not converged
     c_bands:  1 eigenvalues not converged
     c_bands:  1 eigenvalues not converged
     c_bands:  1 eigenvalues not converged
     c_bands:  1 eigenvalues not converged
     c_bands:  1 eigenvalues not converged
     c_bands:  1 eigenvalues not converged
     c_bands:  1 eigenvalues not converged
     c_bands:  1 eigenvalues not converged
     c_bands:  1 eigenvalues not converged
     c_bands:  1 eigenvalues not converged
     c_bands:  1 eigenvalues not converged
     c_bands:  1 eigenvalues not converged
     c_bands:  1 eigenvalues not converged
     c_bands:  1 eigenvalues not converged
     c_bands:  1 eigenvalues not converged
     c_bands:  1 eigenvalues not converged
     c_bands:  1 eigenvalues not converged
     c_bands:  1 eigenvalues not converged
     c_bands:  1 eigenvalues not converged
     c_bands:  1 eigenvalues not converged
     ethr =  1.00E-06,  avg # of iterations = 17.7

     total cpu time spent up to now is      168.2 secs

     total energy              =     -84.90402887 Ry
     estimated scf accuracy    <       0.02074001 Ry

     iteration #  2     ecut=    80.00 Ry     beta= 0.30
     Davidson diagonalization with overlap
     ethr =  1.04E-04,  avg # of iterations =  1.2

     total cpu time spent up to now is      170.8 secs

     total energy              =     -84.90251002 Ry
     estimated scf accuracy    <       0.00797768 Ry

     iteration #  3     ecut=    80.00 Ry     beta= 0.30
     Davidson diagonalization with overlap
     ethr =  3.99E-05,  avg # of iterations =  1.5

     total cpu time spent up to now is      173.6 secs

     total energy              =     -84.90307059 Ry
     estimated scf accuracy    <       0.00041611 Ry

     iteration #  4     ecut=    80.00 Ry     beta= 0.30
     Davidson diagonalization with overlap
     c_bands:  1 eigenvalues not converged
     ethr =  2.08E-06,  avg # of iterations =  5.9

     total cpu time spent up to now is      178.0 secs

     total energy              =     -84.90320639 Ry
     estimated scf accuracy    <       0.00010212 Ry

     iteration #  5     ecut=    80.00 Ry     beta= 0.30
     Davidson diagonalization with overlap
     ethr =  5.11E-07,  avg # of iterations =  2.9

     total cpu time spent up to now is      181.5 secs

     total energy              =     -84.90323698 Ry
     estimated scf accuracy    <       0.00001692 Ry

     iteration #  6     ecut=    80.00 Ry     beta= 0.30
     Davidson diagonalization with overlap
     ethr =  8.46E-08,  avg # of iterations =  3.3

     total cpu time spent up to now is      185.1 secs

     total energy              =     -84.90324358 Ry
     estimated scf accuracy    <       0.00000078 Ry

     iteration #  7     ecut=    80.00 Ry     beta= 0.30
     Davidson diagonalization with overlap
     ethr =  3.91E-09,  avg # of iterations =  5.3

     total cpu time spent up to now is      189.8 secs

     total energy              =     -84.90324406 Ry
     estimated scf accuracy    <       0.00000058 Ry

     iteration #  8     ecut=    80.00 Ry     beta= 0.30
     Davidson diagonalization with overlap
     ethr =  2.88E-09,  avg # of iterations =  4.0

     total cpu time spent up to now is      193.6 secs

     total energy              =     -84.90324427 Ry
     estimated scf accuracy    <       0.00000022 Ry

     iteration #  9     ecut=    80.00 Ry     beta= 0.30
     Davidson diagonalization with overlap
     ethr =  1.12E-09,  avg # of iterations =  1.9

     total cpu time spent up to now is      196.5 secs

     total energy              =     -84.90324428 Ry
     estimated scf accuracy    <       0.00000003 Ry

     iteration # 10     ecut=    80.00 Ry     beta= 0.30
     Davidson diagonalization with overlap
     ethr =  1.37E-10,  avg # of iterations =  5.0

     total cpu time spent up to now is      200.9 secs

     total energy              =     -84.90324430 Ry
     estimated scf accuracy    <       0.00000002 Ry

     iteration # 11     ecut=    80.00 Ry     beta= 0.30
     Davidson diagonalization with overlap
     c_bands:  1 eigenvalues not converged
     ethr =  1.06E-10,  avg # of iterations =  2.4

     total cpu time spent up to now is      204.1 secs

     End of self-consistent calculation

     Number of k-points >= 100: set verbosity='high' to print the bands.

     the Fermi energy is    17.5887 ev

!    total energy              =     -84.90324431 Ry
     estimated scf accuracy    <          5.4E-10 Ry
     smearing contrib. (-TS)   =       0.00000022 Ry
     internal energy E=F+TS    =     -84.90324453 Ry

     The total energy is F=E-TS. E is the sum of the following terms:
     one-electron contribution =       4.67614670 Ry
     hartree contribution      =      11.26679980 Ry
     xc contribution           =     -21.45049160 Ry
     ewald contribution        =     -79.39569942 Ry

     convergence has been achieved in  11 iterations

     Forces acting on atoms (cartesian axes, Ry/au):

     atom    1 type  1   force =     0.00000000    0.00000000    0.00000000
     atom    2 type  2   force =     0.02408056   -0.02408056   -0.02408056
     atom    3 type  2   force =    -0.02408056    0.02408056    0.02408056
     atom    4 type  2   force =    -0.01022236    0.01022236    0.01022236
     atom    5 type  2   force =     0.01022236   -0.01022236   -0.01022236
     atom    6 type  2   force =    -0.04765296    0.04765296    0.11297525
     atom    7 type  2   force =     0.04765296   -0.04765296   -0.11297525
     atom    8 type  2   force =    -0.11297525    0.04765296    0.04765296
     atom    9 type  2   force =     0.11297525   -0.04765296   -0.04765296
     atom   10 type  2   force =    -0.04765296    0.11297525    0.04765296
     atom   11 type  2   force =     0.04765296   -0.11297525   -0.04765296

     Total force =     0.328537     Total SCF correction =     0.000015


     Computing stress (Cartesian axis) and pressure

          total   stress  (Ry/bohr**3)                   (kbar)     P=     2853.81
   0.01939981  -0.00181133  -0.00181133         2853.81     -266.46     -266.46
  -0.00181133   0.01939981   0.00181133         -266.46     2853.81      266.46
  -0.00181133   0.00181133   0.01939981         -266.46      266.46     2853.81

     Energy error            =      7.0E-01 Ry
     Gradient error          =      1.1E-01 Ry/Bohr
     Cell gradient error     =      3.5E+02 kbar

     number of scf cycles    =   3
     number of bfgs steps    =   2

     enthalpy           old  =     -81.4802850718 Ry
     enthalpy           new  =     -82.1760056271 Ry

     CASE: enthalpy          _new < enthalpy          _old

     new trust radius        =       0.1497001674 bohr
     new conv_thr            =       0.0000000010 Ry

     new unit-cell volume =    164.33720 a.u.^3 (    24.35226 Ang^3 )
     density =      3.42019 g/cm^3

CELL_PARAMETERS (alat=  8.40000000)
  -0.562398838   0.083337320   0.562398838
  -0.083337320   0.562398838   0.562398838
  -0.562398838   0.562398838   0.083337320

ATOMIC_POSITIONS (crystal)
Ca               0.0000000000       -0.0000000000       -0.0000000000
H                0.2474034350        0.2474034350        0.2474034350
H                0.7525965650        0.7525965650        0.7525965650
H                0.3422824372        0.3422824372        0.3422824372
H                0.6577175628        0.6577175628        0.6577175628
H                0.3334491486        0.3334491486        0.7275443269
H                0.6665508514        0.6665508514        0.2724556731
H                0.3334491486        0.7275443269        0.3334491486
H                0.6665508514        0.2724556731        0.6665508514
H                0.7275443269        0.3334491486        0.3334491486
H                0.2724556731        0.6665508514        0.6665508514



     Writing config-only to output data dir ./out/cah10.save/ :
     XML data file
     NEW-OLD atomic charge density approx. for the potential
     New effective cutoffs (rho, wfc):  694.50   87.12

     total cpu time spent up to now is      205.7 secs

     per-process dynamical memory:    45.0 Mb

     Self-consistent Calculation

     iteration #  1     ecut=    80.00 Ry     beta= 0.30
     Davidson diagonalization with overlap
     c_bands:  1 eigenvalues not converged
     c_bands:  1 eigenvalues not converged
     c_bands:  1 eigenvalues not converged
     c_bands:  2 eigenvalues not converged
     c_bands:  1 eigenvalues not converged
     c_bands:  2 eigenvalues not converged
     c_bands:  1 eigenvalues not converged
     c_bands:  1 eigenvalues not converged
     c_bands:  1 eigenvalues not converged
     c_bands:  1 eigenvalues not converged
     c_bands:  1 eigenvalues not converged
     c_bands:  2 eigenvalues not converged
     c_bands:  1 eigenvalues not converged
     c_bands:  2 eigenvalues not converged
     c_bands:  2 eigenvalues not converged
     c_bands:  1 eigenvalues not converged
     c_bands:  1 eigenvalues not converged
     c_bands:  1 eigenvalues not converged
     c_bands:  1 eigenvalues not converged
     c_bands:  1 eigenvalues not converged
     c_bands:  1 eigenvalues not converged
     c_bands:  1 eigenvalues not converged
     c_bands:  1 eigenvalues not converged
     c_bands:  2 eigenvalues not converged
     c_bands:  1 eigenvalues not converged
     c_bands:  1 eigenvalues not converged
     c_bands:  1 eigenvalues not converged
     c_bands:  1 eigenvalues not converged
     c_bands:  1 eigenvalues not converged
     c_bands:  2 eigenvalues not converged
     c_bands:  1 eigenvalues not converged
     c_bands:  1 eigenvalues not converged
     c_bands:  1 eigenvalues not converged
     c_bands:  1 eigenvalues not converged
     c_bands:  1 eigenvalues not converged
     c_bands:  2 eigenvalues not converged
     c_bands:  2 eigenvalues not converged
     c_bands:  1 eigenvalues not converged
     c_bands:  1 eigenvalues not converged
     c_bands:  1 eigenvalues not converged
     c_bands:  1 eigenvalues not converged
     c_bands:  1 eigenvalues not converged
     c_bands:  1 eigenvalues not converged
     c_bands:  1 eigenvalues not converged
     c_bands:  1 eigenvalues not converged
     c_bands:  2 eigenvalues not converged
     c_bands:  1 eigenvalues not converged
     c_bands:  1 eigenvalues not converged
     c_bands:  2 eigenvalues not converged
     c_bands:  1 eigenvalues not converged
     c_bands:  1 eigenvalues not converged
     c_bands:  1 eigenvalues not converged
     c_bands:  1 eigenvalues not converged
     c_bands:  2 eigenvalues not converged
     c_bands:  2 eigenvalues not converged
     c_bands:  1 eigenvalues not converged
     c_bands:  2 eigenvalues not converged
     c_bands:  1 eigenvalues not converged
     c_bands:  1 eigenvalues not converged
     c_bands:  3 eigenvalues not converged
     c_bands:  2 eigenvalues not converged
     c_bands:  1 eigenvalues not converged
     c_bands:  2 eigenvalues not converged
     c_bands:  1 eigenvalues not converged
     c_bands:  1 eigenvalues not converged
     c_bands:  1 eigenvalues not converged
     c_bands:  3 eigenvalues not converged
     c_bands:  1 eigenvalues not converged
     c_bands:  2 eigenvalues not converged
     c_bands:  2 eigenvalues not converged
     c_bands:  2 eigenvalues not converged
     c_bands:  2 eigenvalues not converged
     c_bands:  1 eigenvalues not converged
     c_bands:  1 eigenvalues not converged
     c_bands:  1 eigenvalues not converged
     c_bands:  1 eigenvalues not converged
     ethr =  1.00E-06,  avg # of iterations = 18.2

     total cpu time spent up to now is      221.4 secs

     total energy              =     -85.09015411 Ry
     estimated scf accuracy    <       0.01607126 Ry

     iteration #  2     ecut=    80.00 Ry     beta= 0.30
     Davidson diagonalization with overlap
     ethr =  8.04E-05,  avg # of iterations =  1.2

     total cpu time spent up to now is      224.0 secs

     total energy              =     -85.08873360 Ry
     estimated scf accuracy    <       0.00565957 Ry

     iteration #  3     ecut=    80.00 Ry     beta= 0.30
     Davidson diagonalization with overlap
     ethr =  2.83E-05,  avg # of iterations =  2.1

     total cpu time spent up to now is      227.0 secs

     total energy              =     -85.08942147 Ry
     estimated scf accuracy    <       0.00029928 Ry

     iteration #  4     ecut=    80.00 Ry     beta= 0.30
     Davidson diagonalization with overlap
     c_bands:  1 eigenvalues not converged
     ethr =  1.50E-06,  avg # of iterations =  6.5

     total cpu time spent up to now is      231.9 secs

     total energy              =     -85.08959093 Ry
     estimated scf accuracy    <       0.00004568 Ry

     iteration #  5     ecut=    80.00 Ry     beta= 0.30
     Davidson diagonalization with overlap
     ethr =  2.28E-07,  avg # of iterations =  3.2

     total cpu time spent up to now is      235.6 secs

     total energy              =     -85.08960156 Ry
     estimated scf accuracy    <       0.00001327 Ry

     iteration #  6     ecut=    80.00 Ry     beta= 0.30
     Davidson diagonalization with overlap
     ethr =  6.64E-08,  avg # of iterations =  2.8

     total cpu time spent up to now is      239.0 secs

     total energy              =     -85.08960534 Ry
     estimated scf accuracy    <       0.00000109 Ry

     iteration #  7     ecut=    80.00 Ry     beta= 0.30
     Davidson diagonalization with overlap
     c_bands:  1 eigenvalues not converged
     ethr =  5.43E-09,  avg # of iterations =  4.7

     total cpu time spent up to now is      243.2 secs

     total energy              =     -85.08973299 Ry
     estimated scf accuracy    <       0.00000040 Ry

     iteration #  8     ecut=    80.00 Ry     beta= 0.30
     Davidson diagonalization with overlap
     ethr =  2.00E-09,  avg # of iterations =  2.0

     total cpu time spent up to now is      246.0 secs

     total energy              =     -85.08973300 Ry
     estimated scf accuracy    <       0.00000013 Ry

     iteration #  9     ecut=    80.00 Ry     beta= 0.30
     Davidson diagonalization with overlap
     c_bands:  1 eigenvalues not converged
     ethr =  6.70E-10,  avg # of iterations =  2.3

     total cpu time spent up to now is      249.0 secs

     total energy              =     -85.08978316 Ry
     estimated scf accuracy    <       0.00000014 Ry

     iteration # 10     ecut=    80.00 Ry     beta= 0.30
     Davidson diagonalization with overlap
     ethr =  6.70E-10,  avg # of iterations =  1.1

     total cpu time spent up to now is      251.6 secs

     total energy              =     -85.08978313 Ry
     estimated scf accuracy    <       0.00000011 Ry

     iteration # 11     ecut=    80.00 Ry     beta= 0.30
     Davidson diagonalization with overlap
     ethr =  5.55E-10,  avg # of iterations =  1.8

     total cpu time spent up to now is      254.4 secs

     total energy              =     -85.08978314 Ry
     estimated scf accuracy    <       0.00000001 Ry

     iteration # 12     ecut=    80.00 Ry     beta= 0.30
     Davidson diagonalization with overlap
     ethr =  7.15E-11,  avg # of iterations =  5.1

     total cpu time spent up to now is      258.5 secs

     total energy              =     -85.08978315 Ry
     estimated scf accuracy    <       0.00000001 Ry

     iteration # 13     ecut=    80.00 Ry     beta= 0.30
     Davidson diagonalization with overlap
     ethr =  7.15E-11,  avg # of iterations =  1.5

     total cpu time spent up to now is      261.2 secs

     total energy              =     -85.08978315 Ry
     estimated scf accuracy    <          4.6E-09 Ry

     iteration # 14     ecut=    80.00 Ry     beta= 0.30
     Davidson diagonalization with overlap
     ethr =  2.28E-11,  avg # of iterations =  2.7

     total cpu time spent up to now is      264.4 secs

     End of self-consistent calculation

     Number of k-points >= 100: set verbosity='high' to print the bands.

     the Fermi energy is    17.3808 ev

!    total energy              =     -85.08978315 Ry
     estimated scf accuracy    <          4.5E-10 Ry
     smearing contrib. (-TS)   =      -0.00004131 Ry
     internal energy E=F+TS    =     -85.08974183 Ry

     The total energy is F=E-TS. E is the sum of the following terms:
     one-electron contribution =       4.14446232 Ry
     hartree contribution      =      11.22944527 Ry
     xc contribution           =     -21.35709752 Ry
     ewald contribution        =     -79.10655190 Ry

     convergence has been achieved in  14 iterations

     Forces acting on atoms (cartesian axes, Ry/au):

     atom    1 type  1   force =    -0.00000000   -0.00000000    0.00000000
     atom    2 type  2   force =    -0.02313254    0.02313254    0.02313254
     atom    3 type  2   force =     0.02313254   -0.02313254   -0.02313254
     atom    4 type  2   force =     0.01540038   -0.01540038   -0.01540038
     atom    5 type  2   force =    -0.01540038    0.01540038    0.01540038
     atom    6 type  2   force =    -0.02342885    0.02342885   -0.00554906
     atom    7 type  2   force =     0.02342885   -0.02342885    0.00554906
     atom    8 type  2   force =     0.00554906    0.02342885    0.02342885
     atom    9 type  2   force =    -0.00554906   -0.02342885   -0.02342885
     atom   10 type  2   force =    -0.02342885   -0.00554906    0.02342885
     atom   11 type  2   force =     0.02342885    0.00554906   -0.02342885

     Total force =     0.106796     Total SCF correction =     0.000003


     Computing stress (Cartesian axis) and pressure

          total   stress  (Ry/bohr**3)                   (kbar)     P=     2683.55
   0.01824243  -0.00070076  -0.00070076         2683.55     -103.09     -103.09
  -0.00070076   0.01824243   0.00070076         -103.09     2683.55      103.09
  -0.00070076   0.00070076   0.01824243         -103.09      103.09     2683.55

     Energy error            =      1.2E-01 Ry
     Gradient error          =      2.3E-02 Ry/Bohr
     Cell gradient error     =      1.8E+02 kbar

     number of scf cycles    =   4
     number of bfgs steps    =   3

     enthalpy           old  =     -82.1760056271 Ry
     enthalpy           new  =     -82.2969291190 Ry

     CASE: enthalpy          _new < enthalpy          _old

     new trust radius        =       0.0779253069 bohr
     new conv_thr            =       0.0000000010 Ry

     new unit-cell volume =    166.07126 a.u.^3 (    24.60922 Ang^3 )
     density =      3.38448 g/cm^3

CELL_PARAMETERS (alat=  8.40000000)
  -0.578380947   0.107634990   0.578380947
  -0.107634990   0.578380947   0.578380947
  -0.578380947   0.578380947   0.107634990

ATOMIC_POSITIONS (crystal)
Ca               0.0000000000       -0.0000000000       -0.0000000000
H                0.2515418867        0.2515418867        0.2515418867
H                0.7484581133        0.7484581133        0.7484581133
H                0.3391022018        0.3391022018        0.3391022018
H                0.6608977982        0.6608977982        0.6608977982
H                0.3354838757        0.3354838757        0.7354572125
H                0.6645161243        0.6645161243        0.2645427875
H                0.3354838757        0.7354572125        0.3354838757
H                0.6645161243        0.2645427875        0.6645161243
H                0.7354572125        0.3354838757        0.3354838757
H                0.2645427875        0.6645161243        0.6645161243



     Writing config-only to output data dir ./out/cah10.save/ :
     XML data file
     NEW-OLD atomic charge density approx. for the potential
     New effective cutoffs (rho, wfc):  719.19   90.22

     total cpu time spent up to now is      266.0 secs

     per-process dynamical memory:    45.0 Mb

     Self-consistent Calculation

     iteration #  1     ecut=    80.00 Ry     beta= 0.30
     Davidson diagonalization with overlap
     c_bands:  1 eigenvalues not converged
     c_bands:  1 eigenvalues not converged
     c_bands:  2 eigenvalues not converged
     c_bands:  1 eigenvalues not converged
     c_bands:  2 eigenvalues not converged
     c_bands:  1 eigenvalues not converged
     c_bands:  1 eigenvalues not converged
     c_bands:  1 eigenvalues not converged
     c_bands:  1 eigenvalues not converged
     c_bands:  1 eigenvalues not converged
     c_bands:  1 eigenvalues not converged
     c_bands:  1 eigenvalues not converged
     c_bands:  2 eigenvalues not converged
     c_bands:  1 eigenvalues not converged
     c_bands:  1 eigenvalues not converged
     c_bands:  1 eigenvalues not converged
     c_bands:  1 eigenvalues not converged
     c_bands:  2 eigenvalues not converged
     c_bands:  1 eigenvalues not converged
     ethr =  1.00E-06,  avg # of iterations = 15.5

     total cpu time spent up to now is      279.4 secs

     total energy              =     -85.14741710 Ry
     estimated scf accuracy    <       0.00457438 Ry

     iteration #  2     ecut=    80.00 Ry     beta= 0.30
     Davidson diagonalization with overlap
     ethr =  2.29E-05,  avg # of iterations =  1.1

     total cpu time spent up to now is      282.0 secs

     total energy              =     -85.14706023 Ry
     estimated scf accuracy    <       0.00155059 Ry

     iteration #  3     ecut=    80.00 Ry     beta= 0.30
     Davidson diagonalization with overlap
     ethr =  7.75E-06,  avg # of iterations =  2.3

     total cpu time spent up to now is      285.0 secs

     total energy              =     -85.14719258 Ry
     estimated scf accuracy    <       0.00014323 Ry

     iteration #  4     ecut=    80.00 Ry     beta= 0.30
     Davidson diagonalization with overlap
     ethr =  7.16E-07,  avg # of iterations =  4.2

     total cpu time spent up to now is      288.7 secs

     total energy              =     -85.14722723 Ry
     estimated scf accuracy    <       0.00000326 Ry

     iteration #  5     ecut=    80.00 Ry     beta= 0.30
     Davidson diagonalization with overlap
     ethr =  1.63E-08,  avg # of iterations =  6.4

     total cpu time spent up to now is      294.0 secs

     total energy              =     -85.14723479 Ry
     estimated scf accuracy    <       0.00000226 Ry

     iteration #  6     ecut=    80.00 Ry     beta= 0.30
     Davidson diagonalization with overlap
     ethr =  1.13E-08,  avg # of iterations =  2.2

     total cpu time spent up to now is      297.2 secs

     total energy              =     -85.14723540 Ry
     estimated scf accuracy    <       0.00000028 Ry

     iteration #  7     ecut=    80.00 Ry     beta= 0.30
     Davidson diagonalization with overlap
     ethr =  1.38E-09,  avg # of iterations =  3.6

     total cpu time spent up to now is      300.6 secs

     total energy              =     -85.14723549 Ry
     estimated scf accuracy    <       0.00000002 Ry

     iteration #  8     ecut=    80.00 Ry     beta= 0.30
     Davidson diagonalization with overlap
     ethr =  8.75E-11,  avg # of iterations =  5.3

     total cpu time spent up to now is      305.4 secs

     total energy              =     -85.14723551 Ry
     estimated scf accuracy    <          1.4E-09 Ry

     iteration #  9     ecut=    80.00 Ry     beta= 0.30
     Davidson diagonalization with overlap
     ethr =  6.91E-12,  avg # of iterations =  4.3

     total cpu time spent up to now is      309.3 secs

     End of self-consistent calculation

     Number of k-points >= 100: set verbosity='high' to print the bands.

     the Fermi energy is    17.2089 ev

!    total energy              =     -85.14723551 Ry
     estimated scf accuracy    <          9.2E-10 Ry
     smearing contrib. (-TS)   =       0.00018430 Ry
     internal energy E=F+TS    =     -85.14741981 Ry

     The total energy is F=E-TS. E is the sum of the following terms:
     one-electron contribution =       3.30923309 Ry
     hartree contribution      =      11.50710196 Ry
     xc contribution           =     -21.35804546 Ry
     ewald contribution        =     -78.60570939 Ry

     convergence has been achieved in   9 iterations

     Forces acting on atoms (cartesian axes, Ry/au):

     atom    1 type  1   force =    -0.00000000   -0.00000000   -0.00000000
     atom    2 type  2   force =    -0.01861282    0.01861282    0.01861282
     atom    3 type  2   force =     0.01861282   -0.01861282   -0.01861282
     atom    4 type  2   force =     0.00432136   -0.00432136   -0.00432136
     atom    5 type  2   force =    -0.00432136    0.00432136    0.00432136
     atom    6 type  2   force =    -0.01412679    0.01412679   -0.05611913
     atom    7 type  2   force =     0.01412679   -0.01412679    0.05611913
     atom    8 type  2   force =     0.05611913    0.01412679    0.01412679
     atom    9 type  2   force =    -0.05611913   -0.01412679   -0.01412679
     atom   10 type  2   force =    -0.01412679   -0.05611913    0.01412679
     atom   11 type  2   force =     0.01412679    0.05611913   -0.01412679

     Total force =     0.153237     Total SCF correction =     0.000011


     Computing stress (Cartesian axis) and pressure

          total   stress  (Ry/bohr**3)                   (kbar)     P=     2666.53
   0.01812667  -0.00039985  -0.00039985         2666.53      -58.82      -58.82
  -0.00039985   0.01812667   0.00039985          -58.82     2666.53       58.82
  -0.00039985   0.00039985   0.01812667          -58.82       58.82     2666.53

     Energy error            =      2.8E-02 Ry
     Gradient error          =      5.6E-02 Ry/Bohr
     Cell gradient error     =      1.7E+02 kbar

     number of scf cycles    =   5
     number of bfgs steps    =   4

     enthalpy           old  =     -82.2969291190 Ry
     enthalpy           new  =     -82.3249118580 Ry

     CASE: enthalpy          _new < enthalpy          _old

     new trust radius        =       0.1530719500 bohr
     new conv_thr            =       0.0000000010 Ry

     new unit-cell volume =    169.93256 a.u.^3 (    25.18141 Ang^3 )
     density =      3.30757 g/cm^3

CELL_PARAMETERS (alat=  8.40000000)
  -0.607008384   0.148244575   0.607008384
  -0.148244575   0.607008384   0.607008384
  -0.607008384   0.607008384   0.148244575

ATOMIC_POSITIONS (crystal)
Ca               0.0000000000       -0.0000000000        0.0000000000
H                0.2598628247        0.2598628247        0.2598628247
H                0.7401371753        0.7401371753        0.7401371753
H                0.3352749144        0.3352749144        0.3352749144
H                0.6647250856        0.6647250856        0.6647250856
H                0.3305986848        0.3305986848        0.7555794720
H                0.6694013152        0.6694013152        0.2444205280
H                0.3305986848        0.7555794720        0.3305986848
H                0.6694013152        0.2444205280        0.6694013152
H                0.7555794720        0.3305986848        0.3305986848
H                0.2444205280        0.6694013152        0.6694013152



     Writing config-only to output data dir ./out/cah10.save/ :
     XML data file
     NEW-OLD atomic charge density approx. for the potential
     New effective cutoffs (rho, wfc):  757.16   94.99

     total cpu time spent up to now is      310.9 secs

     per-process dynamical memory:    45.0 Mb

     Self-consistent Calculation

     iteration #  1     ecut=    80.00 Ry     beta= 0.30
     Davidson diagonalization with overlap
     c_bands:  2 eigenvalues not converged
     c_bands:  1 eigenvalues not converged
     c_bands:  1 eigenvalues not converged
     c_bands:  2 eigenvalues not converged
     c_bands:  1 eigenvalues not converged
     c_bands:  1 eigenvalues not converged
     c_bands:  1 eigenvalues not converged
     c_bands:  1 eigenvalues not converged
     c_bands:  1 eigenvalues not converged
     c_bands:  1 eigenvalues not converged
     c_bands:  1 eigenvalues not converged
     c_bands:  2 eigenvalues not converged
     c_bands:  1 eigenvalues not converged
     c_bands:  2 eigenvalues not converged
     c_bands:  1 eigenvalues not converged
     c_bands:  1 eigenvalues not converged
     c_bands:  2 eigenvalues not converged
     c_bands:  1 eigenvalues not converged
     c_bands:  1 eigenvalues not converged
     c_bands:  1 eigenvalues not converged
     c_bands:  1 eigenvalues not converged
     c_bands:  1 eigenvalues not converged
     c_bands:  1 eigenvalues not converged
     c_bands:  1 eigenvalues not converged
     c_bands:  1 eigenvalues not converged
     c_bands:  1 eigenvalues not converged
     c_bands:  1 eigenvalues not converged
     c_bands:  1 eigenvalues not converged
     c_bands:  1 eigenvalues not converged
     c_bands:  1 eigenvalues not converged
     c_bands:  1 eigenvalues not converged
     c_bands:  2 eigenvalues not converged
     c_bands:  1 eigenvalues not converged
     c_bands:  1 eigenvalues not converged
     c_bands:  1 eigenvalues not converged
     c_bands:  1 eigenvalues not converged
     c_bands:  2 eigenvalues not converged
     c_bands:  1 eigenvalues not converged
     c_bands:  2 eigenvalues not converged
     c_bands:  1 eigenvalues not converged
     c_bands:  1 eigenvalues not converged
     c_bands:  1 eigenvalues not converged
     c_bands:  1 eigenvalues not converged
     c_bands:  1 eigenvalues not converged
     c_bands:  1 eigenvalues not converged
     c_bands:  1 eigenvalues not converged
     ethr =  1.00E-06,  avg # of iterations = 17.2

     total cpu time spent up to now is      325.6 secs

     total energy              =     -85.23607750 Ry
     estimated scf accuracy    <       0.01483391 Ry

     iteration #  2     ecut=    80.00 Ry     beta= 0.30
     Davidson diagonalization with overlap
     ethr =  7.42E-05,  avg # of iterations =  1.1

     total cpu time spent up to now is      328.3 secs

     total energy              =     -85.23537705 Ry
     estimated scf accuracy    <       0.00395551 Ry

     iteration #  3     ecut=    80.00 Ry     beta= 0.30
     Davidson diagonalization with overlap
     ethr =  1.98E-05,  avg # of iterations =  3.3

     total cpu time spent up to now is      331.6 secs

     total energy              =     -85.23599242 Ry
     estimated scf accuracy    <       0.00047063 Ry

     iteration #  4     ecut=    80.00 Ry     beta= 0.30
     Davidson diagonalization with overlap
     c_bands:  1 eigenvalues not converged
     ethr =  2.35E-06,  avg # of iterations =  5.9

     total cpu time spent up to now is      336.2 secs

     total energy              =     -85.23619285 Ry
     estimated scf accuracy    <       0.00001938 Ry

     iteration #  5     ecut=    80.00 Ry     beta= 0.30
     Davidson diagonalization with overlap
     ethr =  9.69E-08,  avg # of iterations =  5.0

     total cpu time spent up to now is      340.4 secs

     total energy              =     -85.23620534 Ry
     estimated scf accuracy    <       0.00000626 Ry

     iteration #  6     ecut=    80.00 Ry     beta= 0.30
     Davidson diagonalization with overlap
     ethr =  3.13E-08,  avg # of iterations =  2.4

     total cpu time spent up to now is      343.5 secs

     total energy              =     -85.23620682 Ry
     estimated scf accuracy    <       0.00000023 Ry

     iteration #  7     ecut=    80.00 Ry     beta= 0.30
     Davidson diagonalization with overlap
     ethr =  1.17E-09,  avg # of iterations =  5.1

     total cpu time spent up to now is      347.9 secs

     total energy              =     -85.23620707 Ry
     estimated scf accuracy    <       0.00000007 Ry

     iteration #  8     ecut=    80.00 Ry     beta= 0.30
     Davidson diagonalization with overlap
     ethr =  3.27E-10,  avg # of iterations =  2.1

     total cpu time spent up to now is      350.9 secs

     total energy              =     -85.23620708 Ry
     estimated scf accuracy    <          2.5E-09 Ry

     iteration #  9     ecut=    80.00 Ry     beta= 0.30
     Davidson diagonalization with overlap
     c_bands:  1 eigenvalues not converged
     ethr =  1.23E-11,  avg # of iterations =  6.6

     total cpu time spent up to now is      356.3 secs

     total energy              =     -85.23620708 Ry
     estimated scf accuracy    <       0.00000001 Ry

     iteration # 10     ecut=    80.00 Ry     beta= 0.30
     Davidson diagonalization with overlap
     c_bands:  1 eigenvalues not converged
     ethr =  1.23E-11,  avg # of iterations =  2.4

     total cpu time spent up to now is      359.5 secs

     total energy              =     -85.23620708 Ry
     estimated scf accuracy    <          1.2E-09 Ry

     iteration # 11     ecut=    80.00 Ry     beta= 0.30
     Davidson diagonalization with overlap
     ethr =  5.96E-12,  avg # of iterations =  2.7

     total cpu time spent up to now is      362.7 secs

     End of self-consistent calculation

     Number of k-points >= 100: set verbosity='high' to print the bands.

     the Fermi energy is    16.3417 ev

!    total energy              =     -85.23620708 Ry
     estimated scf accuracy    <          1.2E-10 Ry
     smearing contrib. (-TS)   =       0.00013534 Ry
     internal energy E=F+TS    =     -85.23634242 Ry

     The total energy is F=E-TS. E is the sum of the following terms:
     one-electron contribution =       1.14303675 Ry
     hartree contribution      =      12.28257023 Ry
     xc contribution           =     -21.32450302 Ry
     ewald contribution        =     -77.33744638 Ry

     convergence has been achieved in  11 iterations

     Forces acting on atoms (cartesian axes, Ry/au):

     atom    1 type  1   force =    -0.00000000   -0.00000000    0.00000000
     atom    2 type  2   force =     0.01658375   -0.01658375   -0.01658375
     atom    3 type  2   force =    -0.01658375    0.01658375    0.01658375
     atom    4 type  2   force =    -0.02083752    0.02083752    0.02083752
     atom    5 type  2   force =     0.02083752   -0.02083752   -0.02083752
     atom    6 type  2   force =    -0.01297512    0.01297512   -0.06294770
     atom    7 type  2   force =     0.01297512   -0.01297512    0.06294770
     atom    8 type  2   force =     0.06294770    0.01297512    0.01297512
     atom    9 type  2   force =    -0.06294770   -0.01297512   -0.01297512
     atom   10 type  2   force =    -0.01297512   -0.06294770    0.01297512
     atom   11 type  2   force =     0.01297512    0.06294770   -0.01297512

     Total force =     0.173350     Total SCF correction =     0.000008


     Computing stress (Cartesian axis) and pressure

          total   stress  (Ry/bohr**3)                   (kbar)     P=     2584.42
   0.01756854   0.00056457   0.00056457         2584.42       83.05       83.05
   0.00056457   0.01756854  -0.00056457           83.05     2584.42      -83.05
   0.00056457  -0.00056457   0.01756854           83.05      -83.05     2584.42

     Energy error            =      2.3E-02 Ry
     Gradient error          =      6.3E-02 Ry/Bohr
     Cell gradient error     =      8.4E+01 kbar

     number of scf cycles    =   6
     number of bfgs steps    =   5

     enthalpy           old  =     -82.3249118580 Ry
     enthalpy           new  =     -82.3482619873 Ry

     CASE: enthalpy          _new < enthalpy          _old

     new trust radius        =       0.0433718959 bohr
     new conv_thr            =       0.0000000010 Ry

     new unit-cell volume =    174.07060 a.u.^3 (    25.79460 Ang^3 )
     density =      3.22894 g/cm^3

CELL_PARAMETERS (alat=  8.40000000)
  -0.606710352   0.141063323   0.606710352
  -0.141063323   0.606710352   0.606710352
  -0.606710352   0.606710352   0.141063323

ATOMIC_POSITIONS (crystal)
Ca               0.0000000000       -0.0000000000       -0.0000000000
H                0.2590461416        0.2590461416        0.2590461416
H                0.7409538584        0.7409538584        0.7409538584
H                0.3374632204        0.3374632204        0.3374632204
H                0.6625367796        0.6625367796        0.6625367796
H                0.3263560064        0.3263560064        0.7631154939
H                0.6736439936        0.6736439936        0.2368845061
H                0.3263560064        0.7631154939        0.3263560064
H                0.6736439936        0.2368845061        0.6736439936
H                0.7631154939        0.3263560064        0.3263560064
H                0.2368845061        0.6736439936        0.6736439936



     Writing config-only to output data dir ./out/cah10.save/ :
     XML data file
     NEW-OLD atomic charge density approx. for the potential
     New effective cutoffs (rho, wfc):  734.96   92.21

     total cpu time spent up to now is      364.2 secs

     per-process dynamical memory:    45.0 Mb

     Self-consistent Calculation

     iteration #  1     ecut=    80.00 Ry     beta= 0.30
     Davidson diagonalization with overlap
     c_bands:  1 eigenvalues not converged
     c_bands:  1 eigenvalues not converged
     c_bands:  1 eigenvalues not converged
     ethr =  1.00E-06,  avg # of iterations = 11.8

     total cpu time spent up to now is      375.0 secs

     total energy              =     -85.32221313 Ry
     estimated scf accuracy    <       0.00199284 Ry

     iteration #  2     ecut=    80.00 Ry     beta= 0.30
     Davidson diagonalization with overlap
     ethr =  9.96E-06,  avg # of iterations =  1.0

     total cpu time spent up to now is      377.6 secs

     total energy              =     -85.32193119 Ry
     estimated scf accuracy    <       0.00066669 Ry

     iteration #  3     ecut=    80.00 Ry     beta= 0.30
     Davidson diagonalization with overlap
     ethr =  3.33E-06,  avg # of iterations =  2.1

     total cpu time spent up to now is      380.8 secs

     total energy              =     -85.32203840 Ry
     estimated scf accuracy    <       0.00002515 Ry

     iteration #  4     ecut=    80.00 Ry     beta= 0.30
     Davidson diagonalization with overlap
     ethr =  1.26E-07,  avg # of iterations =  5.0

     total cpu time spent up to now is      385.0 secs

     total energy              =     -85.32205641 Ry
     estimated scf accuracy    <       0.00000286 Ry

     iteration #  5     ecut=    80.00 Ry     beta= 0.30
     Davidson diagonalization with overlap
     ethr =  1.43E-08,  avg # of iterations =  3.4

     total cpu time spent up to now is      388.6 secs

     total energy              =     -85.32205715 Ry
     estimated scf accuracy    <       0.00000045 Ry

     iteration #  6     ecut=    80.00 Ry     beta= 0.30
     Davidson diagonalization with overlap
     ethr =  2.23E-09,  avg # of iterations =  4.5

     total cpu time spent up to now is      392.7 secs

     total energy              =     -85.32205731 Ry
     estimated scf accuracy    <       0.00000037 Ry

     iteration #  7     ecut=    80.00 Ry     beta= 0.30
     Davidson diagonalization with overlap
     ethr =  1.84E-09,  avg # of iterations =  1.8

     total cpu time spent up to now is      395.5 secs

     total energy              =     -85.32205735 Ry
     estimated scf accuracy    <       0.00000003 Ry

     iteration #  8     ecut=    80.00 Ry     beta= 0.30
     Davidson diagonalization with overlap
     ethr =  1.60E-10,  avg # of iterations =  5.1

     total cpu time spent up to now is      399.9 secs

     total energy              =     -85.32205737 Ry
     estimated scf accuracy    <       0.00000002 Ry

     iteration #  9     ecut=    80.00 Ry     beta= 0.30
     Davidson diagonalization with overlap
     ethr =  7.71E-11,  avg # of iterations =  3.1

     total cpu time spent up to now is      403.5 secs

     total energy              =     -85.32205737 Ry
     estimated scf accuracy    <          1.5E-09 Ry

     iteration # 10     ecut=    80.00 Ry     beta= 0.30
     Davidson diagonalization with overlap
     ethr =  7.50E-12,  avg # of iterations =  4.6

     total cpu time spent up to now is      407.4 secs

     End of self-consistent calculation

     Number of k-points >= 100: set verbosity='high' to print the bands.

     the Fermi energy is    15.8902 ev

!    total energy              =     -85.32205738 Ry
     estimated scf accuracy    <          7.2E-10 Ry
     smearing contrib. (-TS)   =       0.00015788 Ry
     internal energy E=F+TS    =     -85.32221526 Ry

     The total energy is F=E-TS. E is the sum of the following terms:
     one-electron contribution =       0.55884750 Ry
     hartree contribution      =      12.31411897 Ry
     xc contribution           =     -21.20763327 Ry
     ewald contribution        =     -76.98754846 Ry

     convergence has been achieved in  10 iterations

     Forces acting on atoms (cartesian axes, Ry/au):

     atom    1 type  1   force =     0.00000000    0.00000000    0.00000000
     atom    2 type  2   force =     0.00038639   -0.00038639   -0.00038639
     atom    3 type  2   force =    -0.00038639    0.00038639    0.00038639
     atom    4 type  2   force =    -0.01177851    0.01177851    0.01177851
     atom    5 type  2   force =     0.01177851   -0.01177851   -0.01177851
     atom    6 type  2   force =    -0.01206908    0.01206908   -0.02876096
     atom    7 type  2   force =     0.01206908   -0.01206908    0.02876096
     atom    8 type  2   force =     0.02876096    0.01206908    0.01206908
     atom    9 type  2   force =    -0.02876096   -0.01206908   -0.01206908
     atom   10 type  2   force =    -0.01206908   -0.02876096    0.01206908
     atom   11 type  2   force =     0.01206908    0.02876096   -0.01206908

     Total force =     0.086859     Total SCF correction =     0.000016


     Computing stress (Cartesian axis) and pressure

          total   stress  (Ry/bohr**3)                   (kbar)     P=     2364.19
   0.01607145   0.00012910   0.00012910         2364.19       18.99       18.99
   0.00012910   0.01607145  -0.00012910           18.99     2364.19      -18.99
   0.00012910  -0.00012910   0.01607145           18.99      -18.99     2364.19

     Energy error            =      1.6E-02 Ry
     Gradient error          =      2.9E-02 Ry/Bohr
     Cell gradient error     =      1.4E+02 kbar

     number of scf cycles    =   7
     number of bfgs steps    =   6

     enthalpy           old  =     -82.3482619873 Ry
     enthalpy           new  =     -82.3637877118 Ry

     CASE: enthalpy          _new < enthalpy          _old

     new trust radius        =       0.0908112084 bohr
     new conv_thr            =       0.0000000010 Ry

     new unit-cell volume =    170.06585 a.u.^3 (    25.20116 Ang^3 )
     density =      3.30498 g/cm^3

CELL_PARAMETERS (alat=  8.40000000)
  -0.605489314   0.145582378   0.605489314
  -0.145582378   0.605489314   0.605489314
  -0.605489314   0.605489314   0.145582378

ATOMIC_POSITIONS (crystal)
Ca               0.0000000000       -0.0000000000       -0.0000000000
H                0.2588892682        0.2588892682        0.2588892682
H                0.7411107318        0.7411107318        0.7411107318
H                0.3407353615        0.3407353615        0.3407353615
H                0.6592646385        0.6592646385        0.6592646385
H                0.3181905025        0.3181905025        0.7826236114
H                0.6818094975        0.6818094975        0.2173763886
H                0.3181905025        0.7826236114        0.3181905025
H                0.6818094975        0.2173763886        0.6818094975
H                0.7826236114        0.3181905025        0.3181905025
H                0.2173763886        0.6818094975        0.6818094975



     Writing config-only to output data dir ./out/cah10.save/ :
     XML data file
     NEW-OLD atomic charge density approx. for the potential
     New effective cutoffs (rho, wfc):  753.41   94.52

     total cpu time spent up to now is      409.0 secs

     per-process dynamical memory:    45.0 Mb

     Self-consistent Calculation

     iteration #  1     ecut=    80.00 Ry     beta= 0.30
     Davidson diagonalization with overlap
     c_bands:  1 eigenvalues not converged
     c_bands:  1 eigenvalues not converged
     c_bands:  1 eigenvalues not converged
     c_bands:  1 eigenvalues not converged
     c_bands:  1 eigenvalues not converged
     c_bands:  1 eigenvalues not converged
     c_bands:  2 eigenvalues not converged
     c_bands:  2 eigenvalues not converged
     ethr =  1.00E-06,  avg # of iterations = 12.8

     total cpu time spent up to now is      420.2 secs

     total energy              =     -85.26796922 Ry
     estimated scf accuracy    <       0.00570581 Ry

     iteration #  2     ecut=    80.00 Ry     beta= 0.30
     Davidson diagonalization with overlap
     ethr =  2.85E-05,  avg # of iterations =  1.0

     total cpu time spent up to now is      422.8 secs

     total energy              =     -85.26745484 Ry
     estimated scf accuracy    <       0.00169291 Ry

     iteration #  3     ecut=    80.00 Ry     beta= 0.30
     Davidson diagonalization with overlap
     ethr =  8.46E-06,  avg # of iterations =  3.2

     total cpu time spent up to now is      426.2 secs

     total energy              =     -85.26773426 Ry
     estimated scf accuracy    <       0.00013520 Ry

     iteration #  4     ecut=    80.00 Ry     beta= 0.30
     Davidson diagonalization with overlap
     ethr =  6.76E-07,  avg # of iterations =  4.6

     total cpu time spent up to now is      430.3 secs

     total energy              =     -85.26778895 Ry
     estimated scf accuracy    <       0.00003694 Ry

     iteration #  5     ecut=    80.00 Ry     beta= 0.30
     Davidson diagonalization with overlap
     ethr =  1.85E-07,  avg # of iterations =  4.3

     total cpu time spent up to now is      434.1 secs

     total energy              =     -85.26780402 Ry
     estimated scf accuracy    <       0.00000730 Ry

     iteration #  6     ecut=    80.00 Ry     beta= 0.30
     Davidson diagonalization with overlap
     ethr =  3.65E-08,  avg # of iterations =  3.1

     total cpu time spent up to now is      437.4 secs

     total energy              =     -85.26780587 Ry
     estimated scf accuracy    <       0.00000037 Ry

     iteration #  7     ecut=    80.00 Ry     beta= 0.30
     Davidson diagonalization with overlap
     ethr =  1.85E-09,  avg # of iterations =  4.8

     total cpu time spent up to now is      441.7 secs

     total energy              =     -85.26780631 Ry
     estimated scf accuracy    <       0.00000006 Ry

     iteration #  8     ecut=    80.00 Ry     beta= 0.30
     Davidson diagonalization with overlap
     ethr =  2.84E-10,  avg # of iterations =  4.4

     total cpu time spent up to now is      445.9 secs

     total energy              =     -85.26780627 Ry
     estimated scf accuracy    <       0.00000015 Ry

     iteration #  9     ecut=    80.00 Ry     beta= 0.30
     Davidson diagonalization with overlap
     ethr =  2.84E-10,  avg # of iterations =  3.7

     total cpu time spent up to now is      449.5 secs

     total energy              =     -85.26780629 Ry
     estimated scf accuracy    <          3.0E-09 Ry

     iteration # 10     ecut=    80.00 Ry     beta= 0.30
     Davidson diagonalization with overlap
     ethr =  1.48E-11,  avg # of iterations =  5.1

     total cpu time spent up to now is      454.0 secs

     End of self-consistent calculation

     Number of k-points >= 100: set verbosity='high' to print the bands.

     the Fermi energy is    16.0871 ev

!    total energy              =     -85.26780629 Ry
     estimated scf accuracy    <          2.9E-10 Ry
     smearing contrib. (-TS)   =       0.00001905 Ry
     internal energy E=F+TS    =     -85.26782534 Ry

     The total energy is F=E-TS. E is the sum of the following terms:
     one-electron contribution =       1.54110131 Ry
     hartree contribution      =      12.16989913 Ry
     xc contribution           =     -21.24167625 Ry
     ewald contribution        =     -77.73714953 Ry

     convergence has been achieved in  10 iterations

     Forces acting on atoms (cartesian axes, Ry/au):

     atom    1 type  1   force =     0.00000000    0.00000000    0.00000000
     atom    2 type  2   force =    -0.01386602    0.01386602    0.01386602
     atom    3 type  2   force =     0.01386602   -0.01386602   -0.01386602
     atom    4 type  2   force =    -0.00238726    0.00238726    0.00238726
     atom    5 type  2   force =     0.00238726   -0.00238726   -0.00238726
     atom    6 type  2   force =    -0.01037676    0.01037676    0.00069684
     atom    7 type  2   force =     0.01037676   -0.01037676   -0.00069684
     atom    8 type  2   force =    -0.00069684    0.01037676    0.01037676
     atom    9 type  2   force =     0.00069684   -0.01037676   -0.01037676
     atom   10 type  2   force =    -0.01037676    0.00069684    0.01037676
     atom   11 type  2   force =     0.01037676   -0.00069684   -0.01037676

     Total force =     0.049828     Total SCF correction =     0.000006


     Computing stress (Cartesian axis) and pressure

          total   stress  (Ry/bohr**3)                   (kbar)     P=     2489.10
   0.01692054   0.00029049   0.00029049         2489.10       42.73       42.73
   0.00029049   0.01692054  -0.00029049           42.73     2489.10      -42.73
   0.00029049  -0.00029049   0.01692054           42.73      -42.73     2489.10

     Energy error            =      1.4E-02 Ry
     Gradient error          =      1.4E-02 Ry/Bohr
     Cell gradient error     =      4.3E+01 kbar

     number of scf cycles    =   8
     number of bfgs steps    =   7

     enthalpy           old  =     -82.3637877118 Ry
     enthalpy           new  =     -82.3775959569 Ry

     CASE: enthalpy          _new < enthalpy          _old

     new trust radius        =       0.0961740583 bohr
     new conv_thr            =       0.0000000010 Ry

     new unit-cell volume =    170.66142 a.u.^3 (    25.28941 Ang^3 )
     density =      3.29345 g/cm^3

CELL_PARAMETERS (alat=  8.40000000)
  -0.605510963   0.144648050   0.605510963
  -0.144648050   0.605510963   0.605510963
  -0.605510963   0.605510963   0.144648050

ATOMIC_POSITIONS (crystal)
Ca               0.0000000000       -0.0000000000       -0.0000000000
H                0.2625318440        0.2625318440        0.2625318440
H                0.7374681560        0.7374681560        0.7374681560
H                0.3431999865        0.3431999865        0.3431999865
H                0.6568000135        0.6568000135        0.6568000135
H                0.3124227743        0.3124227743        0.8022499013
H                0.6875772257        0.6875772257        0.1977500987
H                0.3124227743        0.8022499013        0.3124227743
H                0.6875772257        0.1977500987        0.6875772257
H                0.8022499013        0.3124227743        0.3124227743
H                0.1977500987        0.6875772257        0.6875772257



     Writing config-only to output data dir ./out/cah10.save/ :
     XML data file
     NEW-OLD atomic charge density approx. for the potential
     New effective cutoffs (rho, wfc):  750.29   94.13

     total cpu time spent up to now is      455.6 secs

     per-process dynamical memory:    45.0 Mb

     Self-consistent Calculation

     iteration #  1     ecut=    80.00 Ry     beta= 0.30
     Davidson diagonalization with overlap
     c_bands:  1 eigenvalues not converged
     c_bands:  1 eigenvalues not converged
     c_bands:  1 eigenvalues not converged
     c_bands:  1 eigenvalues not converged
     ethr =  1.00E-06,  avg # of iterations = 10.8

     total cpu time spent up to now is      464.6 secs

     total energy              =     -85.28664058 Ry
     estimated scf accuracy    <       0.00265174 Ry

     iteration #  2     ecut=    80.00 Ry     beta= 0.30
     Davidson diagonalization with overlap
     ethr =  1.33E-05,  avg # of iterations =  1.0

     total cpu time spent up to now is      467.2 secs

     total energy              =     -85.28632429 Ry
     estimated scf accuracy    <       0.00097428 Ry

     iteration #  3     ecut=    80.00 Ry     beta= 0.30
     Davidson diagonalization with overlap
     ethr =  4.87E-06,  avg # of iterations =  2.0

     total cpu time spent up to now is      470.2 secs

     total energy              =     -85.28644412 Ry
     estimated scf accuracy    <       0.00002436 Ry

     iteration #  4     ecut=    80.00 Ry     beta= 0.30
     Davidson diagonalization with overlap
     ethr =  1.22E-07,  avg # of iterations =  4.9

     total cpu time spent up to now is      474.2 secs

     total energy              =     -85.28645932 Ry
     estimated scf accuracy    <       0.00000188 Ry

     iteration #  5     ecut=    80.00 Ry     beta= 0.30
     Davidson diagonalization with overlap
     ethr =  9.38E-09,  avg # of iterations =  3.6

     total cpu time spent up to now is      478.0 secs

     total energy              =     -85.28645986 Ry
     estimated scf accuracy    <       0.00000057 Ry

     iteration #  6     ecut=    80.00 Ry     beta= 0.30
     Davidson diagonalization with overlap
     ethr =  2.83E-09,  avg # of iterations =  3.3

     total cpu time spent up to now is      481.5 secs

     total energy              =     -85.28646005 Ry
     estimated scf accuracy    <       0.00000012 Ry

     iteration #  7     ecut=    80.00 Ry     beta= 0.30
     Davidson diagonalization with overlap
     ethr =  5.85E-10,  avg # of iterations =  2.6

     total cpu time spent up to now is      484.5 secs

     total energy              =     -85.28646005 Ry
     estimated scf accuracy    <       0.00000003 Ry

     iteration #  8     ecut=    80.00 Ry     beta= 0.30
     Davidson diagonalization with overlap
     ethr =  1.67E-10,  avg # of iterations =  4.1

     total cpu time spent up to now is      488.2 secs

     End of self-consistent calculation

     Number of k-points >= 100: set verbosity='high' to print the bands.

     the Fermi energy is    15.8600 ev

!    total energy              =     -85.28646006 Ry
     estimated scf accuracy    <          5.7E-10 Ry
     smearing contrib. (-TS)   =       0.00019056 Ry
     internal energy E=F+TS    =     -85.28665062 Ry

     The total energy is F=E-TS. E is the sum of the following terms:
     one-electron contribution =       1.40266012 Ry
     hartree contribution      =      12.19995864 Ry
     xc contribution           =     -21.22983713 Ry
     ewald contribution        =     -77.65943225 Ry

     convergence has been achieved in   8 iterations

     Forces acting on atoms (cartesian axes, Ry/au):

     atom    1 type  1   force =    -0.00000000   -0.00000000   -0.00000000
     atom    2 type  2   force =    -0.00818497    0.00818497    0.00818497
     atom    3 type  2   force =     0.00818497   -0.00818497   -0.00818497
     atom    4 type  2   force =    -0.00999994    0.00999994    0.00999994
     atom    5 type  2   force =     0.00999994   -0.00999994   -0.00999994
     atom    6 type  2   force =    -0.00625986    0.00625986    0.01663086
     atom    7 type  2   force =     0.00625986   -0.00625986   -0.01663086
     atom    8 type  2   force =    -0.01663086    0.00625986    0.00625986
     atom    9 type  2   force =     0.01663086   -0.00625986   -0.00625986
     atom   10 type  2   force =    -0.00625986    0.01663086    0.00625986
     atom   11 type  2   force =     0.00625986   -0.01663086   -0.00625986

     Total force =     0.055962     Total SCF correction =     0.000016


     Computing stress (Cartesian axis) and pressure

          total   stress  (Ry/bohr**3)                   (kbar)     P=     2470.08
   0.01679127   0.00016980   0.00016980         2470.08       24.98       24.98
   0.00016980   0.01679127  -0.00016980           24.98     2470.08      -24.98
   0.00016980  -0.00016980   0.01679127           24.98      -24.98     2470.08

     Energy error            =      8.5E-03 Ry
     Gradient error          =      1.7E-02 Ry/Bohr
     Cell gradient error     =      3.0E+01 kbar

     number of scf cycles    =   9
     number of bfgs steps    =   8

     enthalpy           old  =     -82.3775959569 Ry
     enthalpy           new  =     -82.3861281720 Ry

     CASE: enthalpy          _new < enthalpy          _old

     new trust radius        =       0.1116732843 bohr
     new conv_thr            =       0.0000000010 Ry

     new unit-cell volume =    170.69616 a.u.^3 (    25.29456 Ang^3 )
     density =      3.29278 g/cm^3

CELL_PARAMETERS (alat=  8.40000000)
  -0.601735203   0.138474314   0.601735203
  -0.138474314   0.601735203   0.601735203
  -0.601735203   0.601735203   0.138474314

ATOMIC_POSITIONS (crystal)
Ca               0.0000000000       -0.0000000000       -0.0000000000
H                0.2672470261        0.2672470261        0.2672470261
H                0.7327529739        0.7327529739        0.7327529739
H                0.3487935881        0.3487935881        0.3487935881
H                0.6512064119        0.6512064119        0.6512064119
H                0.3082882243        0.3082882243        0.8227120073
H                0.6917117757        0.6917117757        0.1772879927
H                0.3082882243        0.8227120073        0.3082882243
H                0.6917117757        0.1772879927        0.6917117757
H                0.8227120073        0.3082882243        0.3082882243
H                0.1772879927        0.6917117757        0.6917117757



     Writing config-only to output data dir ./out/cah10.save/ :
     XML data file
     NEW-OLD atomic charge density approx. for the potential
     New effective cutoffs (rho, wfc):  742.56   93.16

     total cpu time spent up to now is      489.8 secs

     per-process dynamical memory:    45.0 Mb

     Self-consistent Calculation

     iteration #  1     ecut=    80.00 Ry     beta= 0.30
     Davidson diagonalization with overlap
     c_bands:  1 eigenvalues not converged
     c_bands:  1 eigenvalues not converged
     c_bands:  1 eigenvalues not converged
     c_bands:  1 eigenvalues not converged
     c_bands:  1 eigenvalues not converged
     c_bands:  1 eigenvalues not converged
     c_bands:  1 eigenvalues not converged
     c_bands:  1 eigenvalues not converged
     c_bands:  1 eigenvalues not converged
     c_bands:  1 eigenvalues not converged
     ethr =  1.00E-06,  avg # of iterations = 12.5

     total cpu time spent up to now is      500.0 secs

     total energy              =     -85.29774945 Ry
     estimated scf accuracy    <       0.00292591 Ry

     iteration #  2     ecut=    80.00 Ry     beta= 0.30
     Davidson diagonalization with overlap
     ethr =  1.46E-05,  avg # of iterations =  1.1

     total cpu time spent up to now is      502.6 secs

     total energy              =     -85.29747265 Ry
     estimated scf accuracy    <       0.00117640 Ry

     iteration #  3     ecut=    80.00 Ry     beta= 0.30
     Davidson diagonalization with overlap
     ethr =  5.88E-06,  avg # of iterations =  2.0

     total cpu time spent up to now is      505.5 secs

     total energy              =     -85.29757816 Ry
     estimated scf accuracy    <       0.00002511 Ry

     iteration #  4     ecut=    80.00 Ry     beta= 0.30
     Davidson diagonalization with overlap
     ethr =  1.26E-07,  avg # of iterations =  4.6

     total cpu time spent up to now is      509.5 secs

     total energy              =     -85.29759317 Ry
     estimated scf accuracy    <       0.00000336 Ry

     iteration #  5     ecut=    80.00 Ry     beta= 0.30
     Davidson diagonalization with overlap
     ethr =  1.68E-08,  avg # of iterations =  2.8

     total cpu time spent up to now is      512.7 secs

     total energy              =     -85.29759427 Ry
     estimated scf accuracy    <       0.00000102 Ry

     iteration #  6     ecut=    80.00 Ry     beta= 0.30
     Davidson diagonalization with overlap
     ethr =  5.12E-09,  avg # of iterations =  2.4

     total cpu time spent up to now is      515.7 secs

     total energy              =     -85.29759442 Ry
     estimated scf accuracy    <       0.00000002 Ry

     iteration #  7     ecut=    80.00 Ry     beta= 0.30
     Davidson diagonalization with overlap
     ethr =  9.57E-11,  avg # of iterations =  6.7

     total cpu time spent up to now is      521.6 secs

     total energy              =     -85.29759448 Ry
     estimated scf accuracy    <          8.6E-09 Ry

     iteration #  8     ecut=    80.00 Ry     beta= 0.30
     Davidson diagonalization with overlap
     ethr =  4.31E-11,  avg # of iterations =  2.1

     total cpu time spent up to now is      524.9 secs

     total energy              =     -85.29759448 Ry
     estimated scf accuracy    <          1.0E-09 Ry

     iteration #  9     ecut=    80.00 Ry     beta= 0.30
     Davidson diagonalization with overlap
     ethr =  5.25E-12,  avg # of iterations =  3.9

     total cpu time spent up to now is      528.8 secs

     End of self-consistent calculation

     Number of k-points >= 100: set verbosity='high' to print the bands.

     the Fermi energy is    15.7715 ev

!    total energy              =     -85.29759448 Ry
     estimated scf accuracy    <          6.5E-10 Ry
     smearing contrib. (-TS)   =       0.00008051 Ry
     internal energy E=F+TS    =     -85.29767499 Ry

     The total energy is F=E-TS. E is the sum of the following terms:
     one-electron contribution =       1.62886523 Ry
     hartree contribution      =      12.07730735 Ry
     xc contribution           =     -21.22502053 Ry
     ewald contribution        =     -77.77882704 Ry

     convergence has been achieved in   9 iterations

     Forces acting on atoms (cartesian axes, Ry/au):

     atom    1 type  1   force =     0.00000000   -0.00000000    0.00000000
     atom    2 type  2   force =    -0.00421956    0.00421956    0.00421956
     atom    3 type  2   force =     0.00421956   -0.00421956   -0.00421956
     atom    4 type  2   force =    -0.01692758    0.01692758    0.01692758
     atom    5 type  2   force =     0.01692758   -0.01692758   -0.01692758
     atom    6 type  2   force =    -0.00480033    0.00480033    0.02811981
     atom    7 type  2   force =     0.00480033   -0.00480033   -0.02811981
     atom    8 type  2   force =    -0.02811981    0.00480033    0.00480033
     atom    9 type  2   force =     0.02811981   -0.00480033   -0.00480033
     atom   10 type  2   force =    -0.00480033    0.02811981    0.00480033
     atom   11 type  2   force =     0.00480033   -0.02811981   -0.00480033

     Total force =     0.082746     Total SCF correction =     0.000016


     Computing stress (Cartesian axis) and pressure

          total   stress  (Ry/bohr**3)                   (kbar)     P=     2467.14
   0.01677124   0.00012607   0.00012607         2467.14       18.55       18.55
   0.00012607   0.01677124  -0.00012607           18.55     2467.14      -18.55
   0.00012607  -0.00012607   0.01677124           18.55      -18.55     2467.14

     Energy error            =      1.1E-02 Ry
     Gradient error          =      2.8E-02 Ry/Bohr
     Cell gradient error     =      3.3E+01 kbar

     number of scf cycles    =  10
     number of bfgs steps    =   9

     enthalpy           old  =     -82.3861281720 Ry
     enthalpy           new  =     -82.3966721691 Ry

     CASE: enthalpy          _new < enthalpy          _old


     WARNING: bfgs curvature condition failed, Theta= 0.933
     new trust radius        =       0.1670633797 bohr
     new conv_thr            =       0.0000000010 Ry

     new unit-cell volume =    170.58077 a.u.^3 (    25.27746 Ang^3 )
     density =      3.29500 g/cm^3

CELL_PARAMETERS (alat=  8.40000000)
  -0.595266374   0.128083523   0.595266374
  -0.128083523   0.595266374   0.595266374
  -0.595266374   0.595266374   0.128083523

ATOMIC_POSITIONS (crystal)
Ca               0.0000000000       -0.0000000000       -0.0000000000
H                0.2735241982        0.2735241982        0.2735241982
H                0.7264758018        0.7264758018        0.7264758018
H                0.3573502963        0.3573502963        0.3573502963
H                0.6426497037        0.6426497037        0.6426497037
H                0.3038817484        0.3038817484        0.8486949759
H                0.6961182516        0.6961182516        0.1513050241
H                0.3038817484        0.8486949759        0.3038817484
H                0.6961182516        0.1513050241        0.6961182516
H                0.8486949759        0.3038817484        0.3038817484
H                0.1513050241        0.6961182516        0.6961182516



     Writing config-only to output data dir ./out/cah10.save/ :
     XML data file
     NEW-OLD atomic charge density approx. for the potential
     New effective cutoffs (rho, wfc):  730.16   91.60

     total cpu time spent up to now is      530.3 secs

     per-process dynamical memory:    45.0 Mb

     Self-consistent Calculation

     iteration #  1     ecut=    80.00 Ry     beta= 0.30
     Davidson diagonalization with overlap
     c_bands:  1 eigenvalues not converged
     c_bands:  1 eigenvalues not converged
     c_bands:  1 eigenvalues not converged
     c_bands:  1 eigenvalues not converged
     c_bands:  1 eigenvalues not converged
     c_bands:  2 eigenvalues not converged
     c_bands:  1 eigenvalues not converged
     c_bands:  1 eigenvalues not converged
     c_bands:  1 eigenvalues not converged
     c_bands:  1 eigenvalues not converged
     c_bands:  1 eigenvalues not converged
     c_bands:  1 eigenvalues not converged
     ethr =  1.00E-06,  avg # of iterations = 13.7

     total cpu time spent up to now is      541.9 secs

     total energy              =     -85.31289176 Ry
     estimated scf accuracy    <       0.00718766 Ry

     iteration #  2     ecut=    80.00 Ry     beta= 0.30
     Davidson diagonalization with overlap
     ethr =  3.59E-05,  avg # of iterations =  1.0

     total cpu time spent up to now is      544.5 secs

     total energy              =     -85.31242951 Ry
     estimated scf accuracy    <       0.00245528 Ry

     iteration #  3     ecut=    80.00 Ry     beta= 0.30
     Davidson diagonalization with overlap
     ethr =  1.23E-05,  avg # of iterations =  2.0

     total cpu time spent up to now is      547.3 secs

     total energy              =     -85.31265658 Ry
     estimated scf accuracy    <       0.00019466 Ry

     iteration #  4     ecut=    80.00 Ry     beta= 0.30
     Davidson diagonalization with overlap
     c_bands:  1 eigenvalues not converged
     ethr =  9.73E-07,  avg # of iterations =  5.6

     total cpu time spent up to now is      551.4 secs

     total energy              =     -85.31272327 Ry
     estimated scf accuracy    <       0.00000599 Ry

     iteration #  5     ecut=    80.00 Ry     beta= 0.30
     Davidson diagonalization with overlap
     ethr =  3.00E-08,  avg # of iterations =  4.9

     total cpu time spent up to now is      555.6 secs

     total energy              =     -85.31272923 Ry
     estimated scf accuracy    <       0.00000233 Ry

     iteration #  6     ecut=    80.00 Ry     beta= 0.30
     Davidson diagonalization with overlap
     ethr =  1.16E-08,  avg # of iterations =  2.3

     total cpu time spent up to now is      558.9 secs

     total energy              =     -85.31272949 Ry
     estimated scf accuracy    <       0.00000040 Ry

     iteration #  7     ecut=    80.00 Ry     beta= 0.30
     Davidson diagonalization with overlap
     ethr =  2.02E-09,  avg # of iterations =  2.8

     total cpu time spent up to now is      562.1 secs

     total energy              =     -85.31272956 Ry
     estimated scf accuracy    <       0.00000006 Ry

     iteration #  8     ecut=    80.00 Ry     beta= 0.30
     Davidson diagonalization with overlap
     ethr =  2.99E-10,  avg # of iterations =  4.8

     total cpu time spent up to now is      566.4 secs

     total energy              =     -85.31272958 Ry
     estimated scf accuracy    <       0.00000008 Ry

     iteration #  9     ecut=    80.00 Ry     beta= 0.30
     Davidson diagonalization with overlap
     ethr =  2.99E-10,  avg # of iterations =  2.2

     total cpu time spent up to now is      569.5 secs

     total energy              =     -85.31272959 Ry
     estimated scf accuracy    <          3.6E-09 Ry

     iteration # 10     ecut=    80.00 Ry     beta= 0.30
     Davidson diagonalization with overlap
     ethr =  1.82E-11,  avg # of iterations =  6.9

     total cpu time spent up to now is      575.3 secs

     total energy              =     -85.31272960 Ry
     estimated scf accuracy    <       0.00000002 Ry

     iteration # 11     ecut=    80.00 Ry     beta= 0.30
     Davidson diagonalization with overlap
     ethr =  1.82E-11,  avg # of iterations =  4.4

     total cpu time spent up to now is      579.3 secs

     End of self-consistent calculation

     Number of k-points >= 100: set verbosity='high' to print the bands.

     the Fermi energy is    15.7444 ev

!    total energy              =     -85.31272960 Ry
     estimated scf accuracy    <          4.0E-10 Ry
     smearing contrib. (-TS)   =       0.00001185 Ry
     internal energy E=F+TS    =     -85.31274145 Ry

     The total energy is F=E-TS. E is the sum of the following terms:
     one-electron contribution =       2.09468026 Ry
     hartree contribution      =      11.83423164 Ry
     xc contribution           =     -21.21138152 Ry
     ewald contribution        =     -78.03027183 Ry

     convergence has been achieved in  11 iterations

     Forces acting on atoms (cartesian axes, Ry/au):

     atom    1 type  1   force =    -0.00000000   -0.00000000    0.00000000
     atom    2 type  2   force =    -0.00121251    0.00121251    0.00121251
     atom    3 type  2   force =     0.00121251   -0.00121251   -0.00121251
     atom    4 type  2   force =    -0.02063807    0.02063807    0.02063807
     atom    5 type  2   force =     0.02063807   -0.02063807   -0.02063807
     atom    6 type  2   force =    -0.00729671    0.00729671    0.04651520
     atom    7 type  2   force =     0.00729671   -0.00729671   -0.04651520
     atom    8 type  2   force =    -0.04651520    0.00729671    0.00729671
     atom    9 type  2   force =     0.04651520   -0.00729671   -0.00729671
     atom   10 type  2   force =    -0.00729671    0.04651520    0.00729671
     atom   11 type  2   force =     0.00729671   -0.04651520   -0.00729671

     Total force =     0.127221     Total SCF correction =     0.000003


     Computing stress (Cartesian axis) and pressure

          total   stress  (Ry/bohr**3)                   (kbar)     P=     2449.25
   0.01664968   0.00026434   0.00026434         2449.25       38.89       38.89
   0.00026434   0.01664968  -0.00026434           38.89     2449.25      -38.89
   0.00026434  -0.00026434   0.01664968           38.89      -38.89     2449.25

     Energy error            =      1.7E-02 Ry
     Gradient error          =      4.7E-02 Ry/Bohr
     Cell gradient error     =      5.1E+01 kbar

     number of scf cycles    =  11
     number of bfgs steps    =  10

     enthalpy           old  =     -82.3966721691 Ry
     enthalpy           new  =     -82.4137683003 Ry

     CASE: enthalpy          _new < enthalpy          _old


     WARNING: bfgs curvature condition failed, Theta= 0.317
     new trust radius        =       0.2462387097 bohr
     new conv_thr            =       0.0000000010 Ry

     new unit-cell volume =    170.37582 a.u.^3 (    25.24709 Ang^3 )
     density =      3.29897 g/cm^3

CELL_PARAMETERS (alat=  8.40000000)
  -0.586497652   0.113870833   0.586497652
  -0.113870833   0.586497652   0.586497652
  -0.586497652   0.586497652   0.113870833

ATOMIC_POSITIONS (crystal)
Ca               0.0000000000       -0.0000000000       -0.0000000000
H                0.2830144149        0.2830144149        0.2830144149
H                0.7169855851        0.7169855851        0.7169855851
H                0.3701853587        0.3701853587        0.3701853587
H                0.6298146413        0.6298146413        0.6298146413
H                0.2969495865        0.2969495865        0.8879584498
H                0.7030504135        0.7030504135        0.1120415502
H                0.2969495865        0.8879584498        0.2969495865
H                0.7030504135        0.1120415502        0.7030504135
H                0.8879584498        0.2969495865        0.2969495865
H                0.1120415502        0.7030504135        0.7030504135



     Writing config-only to output data dir ./out/cah10.save/ :
     XML data file
     NEW-OLD atomic charge density approx. for the potential
     New effective cutoffs (rho, wfc):  713.47   89.51

     total cpu time spent up to now is      580.9 secs

     per-process dynamical memory:    45.0 Mb

     Self-consistent Calculation

     iteration #  1     ecut=    80.00 Ry     beta= 0.30
     Davidson diagonalization with overlap
     c_bands:  1 eigenvalues not converged
     c_bands:  1 eigenvalues not converged
     c_bands:  1 eigenvalues not converged
     c_bands:  1 eigenvalues not converged
     c_bands:  1 eigenvalues not converged
     c_bands:  1 eigenvalues not converged
     c_bands:  1 eigenvalues not converged
     c_bands:  1 eigenvalues not converged
     c_bands:  1 eigenvalues not converged
     c_bands:  2 eigenvalues not converged
     c_bands:  1 eigenvalues not converged
     c_bands:  1 eigenvalues not converged
     c_bands:  2 eigenvalues not converged
     c_bands:  1 eigenvalues not converged
     c_bands:  1 eigenvalues not converged
     c_bands:  1 eigenvalues not converged
     c_bands:  1 eigenvalues not converged
     c_bands:  1 eigenvalues not converged
     c_bands:  1 eigenvalues not converged
     c_bands:  1 eigenvalues not converged
     c_bands:  1 eigenvalues not converged
     c_bands:  1 eigenvalues not converged
     c_bands:  1 eigenvalues not converged
     c_bands:  2 eigenvalues not converged
     c_bands:  2 eigenvalues not converged
     c_bands:  1 eigenvalues not converged
     c_bands:  1 eigenvalues not converged
     c_bands:  1 eigenvalues not converged
     c_bands:  1 eigenvalues not converged
     c_bands:  1 eigenvalues not converged
     c_bands:  1 eigenvalues not converged
     c_bands:  1 eigenvalues not converged
     ethr =  1.00E-06,  avg # of iterations = 15.1

     total cpu time spent up to now is      593.4 secs

     total energy              =     -85.33329632 Ry
     estimated scf accuracy    <       0.01642518 Ry

     iteration #  2     ecut=    80.00 Ry     beta= 0.30
     Davidson diagonalization with overlap
     ethr =  8.21E-05,  avg # of iterations =  1.0

     total cpu time spent up to now is      596.0 secs

     total energy              =     -85.33208567 Ry
     estimated scf accuracy    <       0.00573640 Ry

     iteration #  3     ecut=    80.00 Ry     beta= 0.30
     Davidson diagonalization with overlap
     ethr =  2.87E-05,  avg # of iterations =  2.1

     total cpu time spent up to now is      599.0 secs

     total energy              =     -85.33262995 Ry
     estimated scf accuracy    <       0.00042066 Ry

     iteration #  4     ecut=    80.00 Ry     beta= 0.30
     Davidson diagonalization with overlap
     c_bands:  1 eigenvalues not converged
     ethr =  2.10E-06,  avg # of iterations =  6.7

     total cpu time spent up to now is      603.7 secs

     total energy              =     -85.33278844 Ry
     estimated scf accuracy    <       0.00001089 Ry

     iteration #  5     ecut=    80.00 Ry     beta= 0.30
     Davidson diagonalization with overlap
     ethr =  5.44E-08,  avg # of iterations =  4.7

     total cpu time spent up to now is      607.7 secs

     total energy              =     -85.33279734 Ry
     estimated scf accuracy    <       0.00000415 Ry

     iteration #  6     ecut=    80.00 Ry     beta= 0.30
     Davidson diagonalization with overlap
     ethr =  2.07E-08,  avg # of iterations =  1.8

     total cpu time spent up to now is      610.5 secs

     total energy              =     -85.33279762 Ry
     estimated scf accuracy    <       0.00000028 Ry

     iteration #  7     ecut=    80.00 Ry     beta= 0.30
     Davidson diagonalization with overlap
     ethr =  1.38E-09,  avg # of iterations =  4.7

     total cpu time spent up to now is      614.6 secs

     total energy              =     -85.33279779 Ry
     estimated scf accuracy    <       0.00000004 Ry

     iteration #  8     ecut=    80.00 Ry     beta= 0.30
     Davidson diagonalization with overlap
     ethr =  2.10E-10,  avg # of iterations =  4.1

     total cpu time spent up to now is      618.6 secs

     total energy              =     -85.33279779 Ry
     estimated scf accuracy    <       0.00000003 Ry

     iteration #  9     ecut=    80.00 Ry     beta= 0.30
     Davidson diagonalization with overlap
     ethr =  1.62E-10,  avg # of iterations =  2.0

     total cpu time spent up to now is      621.5 secs

     total energy              =     -85.33279780 Ry
     estimated scf accuracy    <          3.8E-09 Ry

     iteration # 10     ecut=    80.00 Ry     beta= 0.30
     Davidson diagonalization with overlap
     ethr =  1.88E-11,  avg # of iterations =  4.6

     total cpu time spent up to now is      625.7 secs

     total energy              =     -85.33279780 Ry
     estimated scf accuracy    <          2.3E-09 Ry

     iteration # 11     ecut=    80.00 Ry     beta= 0.30
     Davidson diagonalization with overlap
     ethr =  1.17E-11,  avg # of iterations =  2.0

     total cpu time spent up to now is      628.6 secs

     End of self-consistent calculation

     Number of k-points >= 100: set verbosity='high' to print the bands.

     the Fermi energy is    15.9525 ev

!    total energy              =     -85.33279780 Ry
     estimated scf accuracy    <          2.8E-10 Ry
     smearing contrib. (-TS)   =      -0.00000496 Ry
     internal energy E=F+TS    =     -85.33279284 Ry

     The total energy is F=E-TS. E is the sum of the following terms:
     one-electron contribution =       2.67504898 Ry
     hartree contribution      =      11.54597423 Ry
     xc contribution           =     -21.18638672 Ry
     ewald contribution        =     -78.36742934 Ry

     convergence has been achieved in  11 iterations

     Forces acting on atoms (cartesian axes, Ry/au):

     atom    1 type  1   force =    -0.00000000    0.00000000   -0.00000000
     atom    2 type  2   force =    -0.00493334    0.00493334    0.00493334
     atom    3 type  2   force =     0.00493334   -0.00493334   -0.00493334
     atom    4 type  2   force =    -0.01715184    0.01715184    0.01715184
     atom    5 type  2   force =     0.01715184   -0.01715184   -0.01715184
     atom    6 type  2   force =    -0.00333112    0.00333112    0.07353724
     atom    7 type  2   force =     0.00333112   -0.00333112   -0.07353724
     atom    8 type  2   force =    -0.07353724    0.00333112    0.00333112
     atom    9 type  2   force =     0.07353724   -0.00333112   -0.00333112
     atom   10 type  2   force =    -0.00333112    0.07353724    0.00333112
     atom   11 type  2   force =     0.00333112   -0.07353724   -0.00333112

     Total force =     0.185717     Total SCF correction =     0.000002


     Computing stress (Cartesian axis) and pressure

          total   stress  (Ry/bohr**3)                   (kbar)     P=     2406.01
   0.01635573   0.00034718   0.00034718         2406.01       51.07       51.07
   0.00034718   0.01635573  -0.00034718           51.07     2406.01      -51.07
   0.00034718  -0.00034718   0.01635573           51.07      -51.07     2406.01

     Energy error            =      2.4E-02 Ry
     Gradient error          =      7.4E-02 Ry/Bohr
     Cell gradient error     =      9.4E+01 kbar

     number of scf cycles    =  12
     number of bfgs steps    =  11

     enthalpy           old  =     -82.4137683003 Ry
     enthalpy           new  =     -82.4373196110 Ry

     CASE: enthalpy          _new < enthalpy          _old

     new trust radius        =       0.3604645236 bohr
     new conv_thr            =       0.0000000010 Ry

     new unit-cell volume =    168.05233 a.u.^3 (    24.90279 Ang^3 )
     density =      3.34458 g/cm^3

CELL_PARAMETERS (alat=  8.40000000)
  -0.562419276   0.076631095   0.562419276
  -0.076631095   0.562419276   0.562419276
  -0.562419276   0.562419276   0.076631095

ATOMIC_POSITIONS (crystal)
Ca               0.0000000000       -0.0000000000       -0.0000000000
H                0.2984143083        0.2984143083        0.2984143083
H                0.7015856917        0.7015856917        0.7015856917
H                0.3894379522        0.3894379522        0.3894379522
H                0.6105620478        0.6105620478        0.6105620478
H                0.2927959522        0.2927959522        0.9367110207
H                0.7072040478        0.7072040478        0.0632889793
H                0.2927959522        0.9367110207        0.2927959522
H                0.7072040478        0.0632889793        0.7072040478
H                0.9367110207        0.2927959522        0.2927959522
H                0.0632889793        0.7072040478        0.7072040478



     Writing config-only to output data dir ./out/cah10.save/ :
     XML data file
     NEW-OLD atomic charge density approx. for the potential
     New effective cutoffs (rho, wfc):  675.42   84.73

     total cpu time spent up to now is      630.2 secs

     per-process dynamical memory:    45.0 Mb

     Self-consistent Calculation

     iteration #  1     ecut=    80.00 Ry     beta= 0.30
     Davidson diagonalization with overlap
     c_bands:  1 eigenvalues not converged
     c_bands:  2 eigenvalues not converged
     c_bands:  1 eigenvalues not converged
     c_bands:  1 eigenvalues not converged
     c_bands:  2 eigenvalues not converged
     c_bands:  1 eigenvalues not converged
     c_bands:  1 eigenvalues not converged
     c_bands:  1 eigenvalues not converged
     c_bands:  1 eigenvalues not converged
     c_bands:  1 eigenvalues not converged
     c_bands:  1 eigenvalues not converged
     c_bands:  1 eigenvalues not converged
     c_bands:  3 eigenvalues not converged
     c_bands:  1 eigenvalues not converged
     c_bands:  1 eigenvalues not converged
     c_bands:  1 eigenvalues not converged
     c_bands:  1 eigenvalues not converged
     c_bands:  1 eigenvalues not converged
     c_bands:  1 eigenvalues not converged
     c_bands:  2 eigenvalues not converged
     c_bands:  1 eigenvalues not converged
     c_bands:  1 eigenvalues not converged
     c_bands:  1 eigenvalues not converged
     c_bands:  2 eigenvalues not converged
     c_bands:  1 eigenvalues not converged
     c_bands:  1 eigenvalues not converged
     c_bands:  1 eigenvalues not converged
     c_bands:  1 eigenvalues not converged
     c_bands:  2 eigenvalues not converged
     c_bands:  1 eigenvalues not converged
     c_bands:  1 eigenvalues not converged
     c_bands:  1 eigenvalues not converged
     c_bands:  1 eigenvalues not converged
     c_bands:  2 eigenvalues not converged
     c_bands:  1 eigenvalues not converged
     c_bands:  1 eigenvalues not converged
     c_bands:  1 eigenvalues not converged
     c_bands:  1 eigenvalues not converged
     c_bands:  2 eigenvalues not converged
     c_bands:  1 eigenvalues not converged
     c_bands:  1 eigenvalues not converged
     c_bands:  1 eigenvalues not converged
     c_bands:  1 eigenvalues not converged
     c_bands:  1 eigenvalues not converged
     c_bands:  1 eigenvalues not converged
     c_bands:  1 eigenvalues not converged
     c_bands:  1 eigenvalues not converged
     c_bands:  1 eigenvalues not converged
     c_bands:  2 eigenvalues not converged
     c_bands:  1 eigenvalues not converged
     c_bands:  2 eigenvalues not converged
     c_bands:  1 eigenvalues not converged
     c_bands:  1 eigenvalues not converged
     c_bands:  1 eigenvalues not converged
     c_bands:  1 eigenvalues not converged
     c_bands:  1 eigenvalues not converged
     c_bands:  2 eigenvalues not converged
     c_bands:  1 eigenvalues not converged
     c_bands:  1 eigenvalues not converged
     c_bands:  2 eigenvalues not converged
     c_bands:  1 eigenvalues not converged
     c_bands:  3 eigenvalues not converged
     c_bands:  1 eigenvalues not converged
     c_bands:  1 eigenvalues not converged
     c_bands:  1 eigenvalues not converged
     c_bands:  2 eigenvalues not converged
     c_bands:  3 eigenvalues not converged
     c_bands:  1 eigenvalues not converged
     c_bands:  1 eigenvalues not converged
     c_bands:  1 eigenvalues not converged
     c_bands:  3 eigenvalues not converged
     c_bands:  1 eigenvalues not converged
     c_bands:  2 eigenvalues not converged
     c_bands:  1 eigenvalues not converged
     c_bands:  1 eigenvalues not converged
     c_bands:  2 eigenvalues not converged
     c_bands:  2 eigenvalues not converged
     c_bands:  1 eigenvalues not converged
     c_bands:  1 eigenvalues not converged
     c_bands:  1 eigenvalues not converged
     c_bands:  2 eigenvalues not converged
     c_bands:  1 eigenvalues not converged
     c_bands:  2 eigenvalues not converged
     c_bands:  2 eigenvalues not converged
     ethr =  1.00E-06,  avg # of iterations = 18.6

     total cpu time spent up to now is      646.2 secs

     total energy              =     -85.32253688 Ry
     estimated scf accuracy    <       0.04282934 Ry

     iteration #  2     ecut=    80.00 Ry     beta= 0.30
     Davidson diagonalization with overlap
     ethr =  2.14E-04,  avg # of iterations =  1.1

     total cpu time spent up to now is      648.9 secs

     total energy              =     -85.31989617 Ry
     estimated scf accuracy    <       0.01322043 Ry

     iteration #  3     ecut=    80.00 Ry     beta= 0.30
     Davidson diagonalization with overlap
     ethr =  6.61E-05,  avg # of iterations =  3.0

     total cpu time spent up to now is      652.3 secs

     total energy              =     -85.32188456 Ry
     estimated scf accuracy    <       0.00147349 Ry

     iteration #  4     ecut=    80.00 Ry     beta= 0.30
     Davidson diagonalization with overlap
     c_bands:  1 eigenvalues not converged
     ethr =  7.37E-06,  avg # of iterations =  5.7

     total cpu time spent up to now is      656.8 secs

     total energy              =     -85.32217849 Ry
     estimated scf accuracy    <       0.00087357 Ry

     iteration #  5     ecut=    80.00 Ry     beta= 0.30
     Davidson diagonalization with overlap
     ethr =  4.37E-06,  avg # of iterations =  4.7

     total cpu time spent up to now is      660.5 secs

     total energy              =     -85.32240573 Ry
     estimated scf accuracy    <       0.00001071 Ry

     iteration #  6     ecut=    80.00 Ry     beta= 0.30
     Davidson diagonalization with overlap
     c_bands:  1 eigenvalues not converged
     c_bands:  2 eigenvalues not converged
     ethr =  5.35E-08,  avg # of iterations =  7.1

     total cpu time spent up to now is      666.3 secs

     total energy              =     -85.32243666 Ry
     estimated scf accuracy    <       0.00001140 Ry

     iteration #  7     ecut=    80.00 Ry     beta= 0.30
     Davidson diagonalization with overlap
     c_bands:  1 eigenvalues not converged
     ethr =  5.35E-08,  avg # of iterations =  2.1

     total cpu time spent up to now is      669.2 secs

     total energy              =     -85.32243800 Ry
     estimated scf accuracy    <       0.00000112 Ry

     iteration #  8     ecut=    80.00 Ry     beta= 0.30
     Davidson diagonalization with overlap
     ethr =  5.59E-09,  avg # of iterations =  5.2

     total cpu time spent up to now is      673.5 secs

     total energy              =     -85.32243846 Ry
     estimated scf accuracy    <       0.00000079 Ry

     iteration #  9     ecut=    80.00 Ry     beta= 0.30
     Davidson diagonalization with overlap
     ethr =  3.93E-09,  avg # of iterations =  2.4

     total cpu time spent up to now is      676.7 secs

     total energy              =     -85.32243867 Ry
     estimated scf accuracy    <          5.9E-09 Ry

     iteration # 10     ecut=    80.00 Ry     beta= 0.30
     Davidson diagonalization with overlap
     ethr =  2.97E-11,  avg # of iterations =  8.8

     total cpu time spent up to now is      683.9 secs

     total energy              =     -85.32243867 Ry
     estimated scf accuracy    <       0.00000014 Ry

     iteration # 11     ecut=    80.00 Ry     beta= 0.30
     Davidson diagonalization with overlap
     ethr =  2.97E-11,  avg # of iterations =  6.2

     total cpu time spent up to now is      689.0 secs

     total energy              =     -85.32243869 Ry
     estimated scf accuracy    <          8.1E-09 Ry

     iteration # 12     ecut=    80.00 Ry     beta= 0.30
     Davidson diagonalization with overlap
     ethr =  2.97E-11,  avg # of iterations =  1.1

     total cpu time spent up to now is      691.6 secs

     total energy              =     -85.32243869 Ry
     estimated scf accuracy    <          5.6E-09 Ry

     iteration # 13     ecut=    80.00 Ry     beta= 0.30
     Davidson diagonalization with overlap
     ethr =  2.79E-11,  avg # of iterations =  2.3

     total cpu time spent up to now is      694.6 secs

     End of self-consistent calculation

     Number of k-points >= 100: set verbosity='high' to print the bands.

     the Fermi energy is    16.7894 ev

!    total energy              =     -85.32243869 Ry
     estimated scf accuracy    <          4.0E-10 Ry
     smearing contrib. (-TS)   =       0.00011102 Ry
     internal energy E=F+TS    =     -85.32254971 Ry

     The total energy is F=E-TS. E is the sum of the following terms:
     one-electron contribution =       3.91470356 Ry
     hartree contribution      =      11.05541868 Ry
     xc contribution           =     -21.21594290 Ry
     ewald contribution        =     -79.07672904 Ry

     convergence has been achieved in  13 iterations

     Forces acting on atoms (cartesian axes, Ry/au):

     atom    1 type  1   force =     0.00000000    0.00000000    0.00000000
     atom    2 type  2   force =    -0.02416655    0.02416655    0.02416655
     atom    3 type  2   force =     0.02416655   -0.02416655   -0.02416655
     atom    4 type  2   force =    -0.00498754    0.00498754    0.00498754
     atom    5 type  2   force =     0.00498754   -0.00498754   -0.00498754
     atom    6 type  2   force =     0.01439690   -0.01439690    0.10053151
     atom    7 type  2   force =    -0.01439690    0.01439690   -0.10053151
     atom    8 type  2   force =    -0.10053151   -0.01439690   -0.01439690
     atom    9 type  2   force =     0.10053151    0.01439690    0.01439690
     atom   10 type  2   force =     0.01439690    0.10053151   -0.01439690
     atom   11 type  2   force =    -0.01439690   -0.10053151    0.01439690

     Total force =     0.258419     Total SCF correction =     0.000006


     Computing stress (Cartesian axis) and pressure

          total   stress  (Ry/bohr**3)                   (kbar)     P=     2423.92
   0.01647747   0.00033973   0.00033973         2423.92       49.98       49.98
   0.00033973   0.01647747  -0.00033973           49.98     2423.92      -49.98
   0.00033973  -0.00033973   0.01647747           49.98      -49.98     2423.92

     Energy error            =      2.9E-02 Ry
     Gradient error          =      1.0E-01 Ry/Bohr
     Cell gradient error     =      7.6E+01 kbar

     number of scf cycles    =  13
     number of bfgs steps    =  12

     enthalpy           old  =     -82.4373196110 Ry
     enthalpy           new  =     -82.4664473004 Ry

     CASE: enthalpy          _new < enthalpy          _old

     new trust radius        =       0.2162428891 bohr
     new conv_thr            =       0.0000000010 Ry

     new unit-cell volume =    164.76358 a.u.^3 (    24.41544 Ang^3 )
     density =      3.41134 g/cm^3

CELL_PARAMETERS (alat=  8.40000000)
  -0.533290732   0.029740760   0.533290732
  -0.029740760   0.533290732   0.533290732
  -0.533290732   0.533290732   0.029740760

ATOMIC_POSITIONS (crystal)
Ca               0.0000000000       -0.0000000000        0.0000000000
H                0.3107848614        0.3107848614        0.3107848614
H                0.6892151386        0.6892151386        0.6892151386
H                0.4011733226        0.4011733226        0.4011733226
H                0.5988266774        0.5988266774        0.5988266774
H                0.3015537060        0.3015537060        0.9436185317
H                0.6984462940        0.6984462940        0.0563814683
H                0.3015537060        0.9436185317        0.3015537060
H                0.6984462940        0.0563814683        0.6984462940
H                0.9436185317        0.3015537060        0.3015537060
H                0.0563814683        0.6984462940        0.6984462940



     Writing config-only to output data dir ./out/cah10.save/ :
     XML data file
     NEW-OLD atomic charge density approx. for the potential
     New effective cutoffs (rho, wfc):  628.76   78.86

     total cpu time spent up to now is      696.2 secs

     per-process dynamical memory:    45.0 Mb

     Self-consistent Calculation

     iteration #  1     ecut=    80.00 Ry     beta= 0.30
     Davidson diagonalization with overlap
     c_bands:  1 eigenvalues not converged
     c_bands:  1 eigenvalues not converged
     c_bands:  1 eigenvalues not converged
     c_bands:  1 eigenvalues not converged
     c_bands:  1 eigenvalues not converged
     c_bands:  1 eigenvalues not converged
     c_bands:  1 eigenvalues not converged
     c_bands:  1 eigenvalues not converged
     c_bands:  1 eigenvalues not converged
     c_bands:  1 eigenvalues not converged
     c_bands:  1 eigenvalues not converged
     c_bands:  1 eigenvalues not converged
     c_bands:  1 eigenvalues not converged
     c_bands:  1 eigenvalues not converged
     c_bands:  1 eigenvalues not converged
     c_bands:  2 eigenvalues not converged
     c_bands:  1 eigenvalues not converged
     c_bands:  4 eigenvalues not converged
     c_bands:  1 eigenvalues not converged
     c_bands:  4 eigenvalues not converged
     c_bands:  1 eigenvalues not converged
     c_bands:  1 eigenvalues not converged
     c_bands:  1 eigenvalues not converged
     c_bands:  2 eigenvalues not converged
     c_bands:  1 eigenvalues not converged
     c_bands:  1 eigenvalues not converged
     c_bands:  1 eigenvalues not converged
     c_bands:  1 eigenvalues not converged
     c_bands:  2 eigenvalues not converged
     c_bands:  1 eigenvalues not converged
     c_bands:  1 eigenvalues not converged
     c_bands:  2 eigenvalues not converged
     c_bands:  1 eigenvalues not converged
     c_bands:  2 eigenvalues not converged
     c_bands:  1 eigenvalues not converged
     c_bands:  2 eigenvalues not converged
     c_bands:  2 eigenvalues not converged
     c_bands:  1 eigenvalues not converged
     c_bands:  1 eigenvalues not converged
     c_bands:  1 eigenvalues not converged
     c_bands:  1 eigenvalues not converged
     c_bands:  1 eigenvalues not converged
     c_bands:  1 eigenvalues not converged
     c_bands:  1 eigenvalues not converged
     c_bands:  2 eigenvalues not converged
     c_bands:  2 eigenvalues not converged
     c_bands:  1 eigenvalues not converged
     c_bands:  1 eigenvalues not converged
     c_bands:  1 eigenvalues not converged
     c_bands:  2 eigenvalues not converged
     c_bands:  1 eigenvalues not converged
     c_bands:  1 eigenvalues not converged
     c_bands:  1 eigenvalues not converged
     c_bands:  1 eigenvalues not converged
     c_bands:  3 eigenvalues not converged
     c_bands:  1 eigenvalues not converged
     c_bands:  1 eigenvalues not converged
     c_bands:  1 eigenvalues not converged
     c_bands:  1 eigenvalues not converged
     c_bands:  1 eigenvalues not converged
     c_bands:  1 eigenvalues not converged
     c_bands:  1 eigenvalues not converged
     c_bands:  1 eigenvalues not converged
     c_bands:  2 eigenvalues not converged
     c_bands:  1 eigenvalues not converged
     c_bands:  2 eigenvalues not converged
     c_bands:  2 eigenvalues not converged
     c_bands:  1 eigenvalues not converged
     c_bands:  2 eigenvalues not converged
     c_bands:  1 eigenvalues not converged
     c_bands:  1 eigenvalues not converged
     c_bands:  1 eigenvalues not converged
     c_bands:  1 eigenvalues not converged
     c_bands:  1 eigenvalues not converged
     c_bands:  1 eigenvalues not converged
     c_bands:  1 eigenvalues not converged
     c_bands:  3 eigenvalues not converged
     c_bands:  1 eigenvalues not converged
     c_bands:  1 eigenvalues not converged
     c_bands:  2 eigenvalues not converged
     c_bands:  1 eigenvalues not converged
     c_bands:  1 eigenvalues not converged
     c_bands:  1 eigenvalues not converged
     c_bands:  1 eigenvalues not converged
     c_bands:  1 eigenvalues not converged
     c_bands:  1 eigenvalues not converged
     c_bands:  1 eigenvalues not converged
     c_bands:  1 eigenvalues not converged
     c_bands:  1 eigenvalues not converged
     c_bands:  1 eigenvalues not converged
     c_bands:  1 eigenvalues not converged
     c_bands:  2 eigenvalues not converged
     c_bands:  2 eigenvalues not converged
     c_bands:  2 eigenvalues not converged
     c_bands:  2 eigenvalues not converged
     c_bands:  4 eigenvalues not converged
     c_bands:  1 eigenvalues not converged
     c_bands:  1 eigenvalues not converged
     c_bands:  2 eigenvalues not converged
     c_bands:  3 eigenvalues not converged
     c_bands:  2 eigenvalues not converged
     ethr =  1.00E-06,  avg # of iterations = 18.9

     total cpu time spent up to now is      712.8 secs

     total energy              =     -85.30583809 Ry
     estimated scf accuracy    <       0.01601324 Ry

     iteration #  2     ecut=    80.00 Ry     beta= 0.30
     Davidson diagonalization with overlap
     ethr =  8.01E-05,  avg # of iterations =  1.3

     total cpu time spent up to now is      715.4 secs

     total energy              =     -85.30492390 Ry
     estimated scf accuracy    <       0.00510076 Ry

     iteration #  3     ecut=    80.00 Ry     beta= 0.30
     Davidson diagonalization with overlap
     ethr =  2.55E-05,  avg # of iterations =  4.0

     total cpu time spent up to now is      719.2 secs

     total energy              =     -85.30596640 Ry
     estimated scf accuracy    <       0.00053151 Ry

     iteration #  4     ecut=    80.00 Ry     beta= 0.30
     Davidson diagonalization with overlap
     ethr =  2.66E-06,  avg # of iterations =  5.4

     total cpu time spent up to now is      723.6 secs

     total energy              =     -85.30609408 Ry
     estimated scf accuracy    <       0.00039383 Ry

     iteration #  5     ecut=    80.00 Ry     beta= 0.30
     Davidson diagonalization with overlap
     ethr =  1.97E-06,  avg # of iterations =  2.9

     total cpu time spent up to now is      726.7 secs

     total energy              =     -85.30613083 Ry
     estimated scf accuracy    <       0.00002522 Ry

     iteration #  6     ecut=    80.00 Ry     beta= 0.30
     Davidson diagonalization with overlap
     c_bands:  1 eigenvalues not converged
     ethr =  1.26E-07,  avg # of iterations =  6.2

     total cpu time spent up to now is      731.6 secs

     total energy              =     -85.30615899 Ry
     estimated scf accuracy    <       0.00001259 Ry

     iteration #  7     ecut=    80.00 Ry     beta= 0.30
     Davidson diagonalization with overlap
     ethr =  6.29E-08,  avg # of iterations =  2.9

     total cpu time spent up to now is      735.1 secs

     total energy              =     -85.30616258 Ry
     estimated scf accuracy    <       0.00000049 Ry

     iteration #  8     ecut=    80.00 Ry     beta= 0.30
     Davidson diagonalization with overlap
     ethr =  2.43E-09,  avg # of iterations =  5.0

     total cpu time spent up to now is      739.6 secs

     total energy              =     -85.30616302 Ry
     estimated scf accuracy    <       0.00000010 Ry

     iteration #  9     ecut=    80.00 Ry     beta= 0.30
     Davidson diagonalization with overlap
     ethr =  4.81E-10,  avg # of iterations =  3.6

     total cpu time spent up to now is      743.4 secs

     total energy              =     -85.30616305 Ry
     estimated scf accuracy    <       0.00000003 Ry

     iteration # 10     ecut=    80.00 Ry     beta= 0.30
     Davidson diagonalization with overlap
     ethr =  1.55E-10,  avg # of iterations =  2.4

     total cpu time spent up to now is      746.5 secs

     total energy              =     -85.30616305 Ry
     estimated scf accuracy    <          9.4E-09 Ry

     iteration # 11     ecut=    80.00 Ry     beta= 0.30
     Davidson diagonalization with overlap
     ethr =  4.68E-11,  avg # of iterations =  4.6

     total cpu time spent up to now is      750.4 secs

     total energy              =     -85.30616305 Ry
     estimated scf accuracy    <          1.7E-09 Ry

     iteration # 12     ecut=    80.00 Ry     beta= 0.30
     Davidson diagonalization with overlap
     ethr =  8.39E-12,  avg # of iterations =  2.7

     total cpu time spent up to now is      753.6 secs

     End of self-consistent calculation

     Number of k-points >= 100: set verbosity='high' to print the bands.

     the Fermi energy is    17.0526 ev

!    total energy              =     -85.30616305 Ry
     estimated scf accuracy    <          4.2E-10 Ry
     smearing contrib. (-TS)   =      -0.00017867 Ry
     internal energy E=F+TS    =     -85.30598438 Ry

     The total energy is F=E-TS. E is the sum of the following terms:
     one-electron contribution =       5.02175304 Ry
     hartree contribution      =      10.70485835 Ry
     xc contribution           =     -21.28642898 Ry
     ewald contribution        =     -79.74616679 Ry

     convergence has been achieved in  12 iterations

     Forces acting on atoms (cartesian axes, Ry/au):

     atom    1 type  1   force =     0.00000000    0.00000000    0.00000000
     atom    2 type  2   force =    -0.00214172    0.00214172    0.00214172
     atom    3 type  2   force =     0.00214172   -0.00214172   -0.00214172
     atom    4 type  2   force =    -0.02165056    0.02165056    0.02165056
     atom    5 type  2   force =     0.02165056   -0.02165056   -0.02165056
     atom    6 type  2   force =     0.00884961   -0.00884961    0.09706527
     atom    7 type  2   force =    -0.00884961    0.00884961   -0.09706527
     atom    8 type  2   force =    -0.09706527   -0.00884961   -0.00884961
     atom    9 type  2   force =     0.09706527    0.00884961    0.00884961
     atom   10 type  2   force =     0.00884961    0.09706527   -0.00884961
     atom   11 type  2   force =    -0.00884961   -0.09706527    0.00884961

     Total force =     0.245581     Total SCF correction =     0.000008


     Computing stress (Cartesian axis) and pressure

          total   stress  (Ry/bohr**3)                   (kbar)     P=     2539.70
   0.01726450  -0.00153528  -0.00153528         2539.70     -225.85     -225.85
  -0.00153528   0.01726450   0.00153528         -225.85     2539.70      225.85
  -0.00153528   0.00153528   0.01726450         -225.85      225.85     2539.70

     Energy error            =      4.0E-02 Ry
     Gradient error          =      9.7E-02 Ry/Bohr
     Cell gradient error     =      2.3E+02 kbar

     number of scf cycles    =  14
     number of bfgs steps    =  13

     enthalpy           old  =     -82.4664473004 Ry
     enthalpy           new  =     -82.5060628699 Ry

     CASE: enthalpy          _new < enthalpy          _old

     new trust radius        =       0.2220339841 bohr
     new conv_thr            =       0.0000000010 Ry

     new unit-cell volume =    169.78041 a.u.^3 (    25.15886 Ang^3 )
     density =      3.31054 g/cm^3

CELL_PARAMETERS (alat=  8.40000000)
  -0.544780662   0.041542411   0.544780662
  -0.041542411   0.544780662   0.544780662
  -0.544780662   0.544780662   0.041542411

ATOMIC_POSITIONS (crystal)
Ca               0.0000000000       -0.0000000000        0.0000000000
H                0.3113389401        0.3113389401        0.3113389401
H                0.6886610599        0.6886610599        0.6886610599
H                0.3963000148        0.3963000148        0.3963000148
H                0.6036999852        0.6036999852        0.6036999852
H                0.3217475927        0.3217475927        0.8997466004
H                0.6782524073        0.6782524073        0.1002533996
H                0.3217475927        0.8997466004        0.3217475927
H                0.6782524073        0.1002533996        0.6782524073
H                0.8997466004        0.3217475927        0.3217475927
H                0.1002533996        0.6782524073        0.6782524073



     Writing config-only to output data dir ./out/cah10.save/ :
     XML data file
     NEW-OLD atomic charge density approx. for the potential
     New effective cutoffs (rho, wfc):  629.50   78.96

     total cpu time spent up to now is      755.2 secs

     per-process dynamical memory:    45.0 Mb

     Self-consistent Calculation

     iteration #  1     ecut=    80.00 Ry     beta= 0.30
     Davidson diagonalization with overlap
     c_bands:  1 eigenvalues not converged
     c_bands:  1 eigenvalues not converged
     c_bands:  1 eigenvalues not converged
     c_bands:  1 eigenvalues not converged
     c_bands:  1 eigenvalues not converged
     c_bands:  1 eigenvalues not converged
     c_bands:  1 eigenvalues not converged
     c_bands:  1 eigenvalues not converged
     c_bands:  2 eigenvalues not converged
     c_bands:  1 eigenvalues not converged
     c_bands:  2 eigenvalues not converged
     c_bands:  1 eigenvalues not converged
     c_bands:  2 eigenvalues not converged
     c_bands:  1 eigenvalues not converged
     c_bands:  1 eigenvalues not converged
     c_bands:  1 eigenvalues not converged
     c_bands:  1 eigenvalues not converged
     c_bands:  1 eigenvalues not converged
     c_bands:  2 eigenvalues not converged
     c_bands:  1 eigenvalues not converged
     c_bands:  1 eigenvalues not converged
     c_bands:  2 eigenvalues not converged
     c_bands:  1 eigenvalues not converged
     c_bands:  1 eigenvalues not converged
     c_bands:  3 eigenvalues not converged
     c_bands:  1 eigenvalues not converged
     c_bands:  1 eigenvalues not converged
     c_bands:  1 eigenvalues not converged
     c_bands:  1 eigenvalues not converged
     c_bands:  1 eigenvalues not converged
     c_bands:  1 eigenvalues not converged
     c_bands:  1 eigenvalues not converged
     c_bands:  1 eigenvalues not converged
     c_bands:  1 eigenvalues not converged
     c_bands:  1 eigenvalues not converged
     c_bands:  1 eigenvalues not converged
     c_bands:  1 eigenvalues not converged
     c_bands:  1 eigenvalues not converged
     c_bands:  1 eigenvalues not converged
     c_bands:  1 eigenvalues not converged
     c_bands:  1 eigenvalues not converged
     c_bands:  1 eigenvalues not converged
     c_bands:  1 eigenvalues not converged
     c_bands:  2 eigenvalues not converged
     c_bands:  1 eigenvalues not converged
     c_bands:  1 eigenvalues not converged
     c_bands:  1 eigenvalues not converged
     c_bands:  1 eigenvalues not converged
     c_bands:  1 eigenvalues not converged
     c_bands:  1 eigenvalues not converged
     c_bands:  2 eigenvalues not converged
     c_bands:  2 eigenvalues not converged
     ethr =  1.00E-06,  avg # of iterations = 16.8

     total cpu time spent up to now is      769.2 secs

     total energy              =     -85.46227184 Ry
     estimated scf accuracy    <       0.02321904 Ry

     iteration #  2     ecut=    80.00 Ry     beta= 0.30
     Davidson diagonalization with overlap
     ethr =  1.16E-04,  avg # of iterations =  1.0

     total cpu time spent up to now is      771.7 secs

     total energy              =     -85.45942917 Ry
     estimated scf accuracy    <       0.00823314 Ry

     iteration #  3     ecut=    80.00 Ry     beta= 0.30
     Davidson diagonalization with overlap
     ethr =  4.12E-05,  avg # of iterations =  2.0

     total cpu time spent up to now is      774.8 secs

     total energy              =     -85.46044960 Ry
     estimated scf accuracy    <       0.00031983 Ry

     iteration #  4     ecut=    80.00 Ry     beta= 0.30
     Davidson diagonalization with overlap
     c_bands:  1 eigenvalues not converged
     ethr =  1.60E-06,  avg # of iterations =  6.3

     total cpu time spent up to now is      779.7 secs

     total energy              =     -85.46062566 Ry
     estimated scf accuracy    <       0.00001702 Ry

     iteration #  5     ecut=    80.00 Ry     beta= 0.30
     Davidson diagonalization with overlap
     ethr =  8.51E-08,  avg # of iterations =  4.2

     total cpu time spent up to now is      783.8 secs

     total energy              =     -85.46063417 Ry
     estimated scf accuracy    <       0.00000458 Ry

     iteration #  6     ecut=    80.00 Ry     beta= 0.30
     Davidson diagonalization with overlap
     ethr =  2.29E-08,  avg # of iterations =  3.2

     total cpu time spent up to now is      787.4 secs

     total energy              =     -85.46063562 Ry
     estimated scf accuracy    <       0.00000051 Ry

     iteration #  7     ecut=    80.00 Ry     beta= 0.30
     Davidson diagonalization with overlap
     ethr =  2.55E-09,  avg # of iterations =  4.3

     total cpu time spent up to now is      791.1 secs

     total energy              =     -85.46063578 Ry
     estimated scf accuracy    <       0.00000008 Ry

     iteration #  8     ecut=    80.00 Ry     beta= 0.30
     Davidson diagonalization with overlap
     ethr =  3.94E-10,  avg # of iterations =  4.1

     total cpu time spent up to now is      795.1 secs

     total energy              =     -85.46063582 Ry
     estimated scf accuracy    <       0.00000002 Ry

     iteration #  9     ecut=    80.00 Ry     beta= 0.30
     Davidson diagonalization with overlap
     ethr =  1.12E-10,  avg # of iterations =  2.3

     total cpu time spent up to now is      798.4 secs

     End of self-consistent calculation

     Number of k-points >= 100: set verbosity='high' to print the bands.

     the Fermi energy is    16.8466 ev

!    total energy              =     -85.46063582 Ry
     estimated scf accuracy    <          9.0E-10 Ry
     smearing contrib. (-TS)   =       0.00010600 Ry
     internal energy E=F+TS    =     -85.46074183 Ry

     The total energy is F=E-TS. E is the sum of the following terms:
     one-electron contribution =       4.28594942 Ry
     hartree contribution      =      10.65657190 Ry
     xc contribution           =     -21.18933096 Ry
     ewald contribution        =     -79.21393218 Ry

     convergence has been achieved in   9 iterations

     Forces acting on atoms (cartesian axes, Ry/au):

     atom    1 type  1   force =     0.00000000    0.00000000    0.00000000
     atom    2 type  2   force =     0.03597082   -0.03597082   -0.03597082
     atom    3 type  2   force =    -0.03597082    0.03597082    0.03597082
     atom    4 type  2   force =    -0.02770838    0.02770838    0.02770838
     atom    5 type  2   force =     0.02770838   -0.02770838   -0.02770838
     atom    6 type  2   force =    -0.01029502    0.01029502    0.04089275
     atom    7 type  2   force =     0.01029502   -0.01029502   -0.04089275
     atom    8 type  2   force =    -0.04089275    0.01029502    0.01029502
     atom    9 type  2   force =     0.04089275   -0.01029502   -0.01029502
     atom   10 type  2   force =    -0.01029502    0.04089275    0.01029502
     atom   11 type  2   force =     0.01029502   -0.04089275   -0.01029502

     Total force =     0.153867     Total SCF correction =     0.000009


     Computing stress (Cartesian axis) and pressure

          total   stress  (Ry/bohr**3)                   (kbar)     P=     2300.73
   0.01564006  -0.00054852  -0.00054852         2300.73      -80.69      -80.69
  -0.00054852   0.01564006   0.00054852          -80.69     2300.73       80.69
  -0.00054852   0.00054852   0.01564006          -80.69       80.69     2300.73

     Energy error            =      6.9E-02 Ry
     Gradient error          =      4.1E-02 Ry/Bohr
     Cell gradient error     =      2.0E+02 kbar

     number of scf cycles    =  15
     number of bfgs steps    =  14

     enthalpy           old  =     -82.5060628699 Ry
     enthalpy           new  =     -82.5752763600 Ry

     CASE: enthalpy          _new < enthalpy          _old

     new trust radius        =       0.0871281635 bohr
     new conv_thr            =       0.0000000010 Ry

     new unit-cell volume =    165.57780 a.u.^3 (    24.53610 Ang^3 )
     density =      3.39456 g/cm^3

CELL_PARAMETERS (alat=  8.40000000)
  -0.540175305   0.041061618   0.540175305
  -0.041061618   0.540175305   0.540175305
  -0.540175305   0.540175305   0.041061618

ATOMIC_POSITIONS (crystal)
Ca               0.0000000000       -0.0000000000        0.0000000000
H                0.3101887892        0.3101887892        0.3101887892
H                0.6898112108        0.6898112108        0.6898112108
H                0.3987190395        0.3987190395        0.3987190395
H                0.6012809605        0.6012809605        0.6012809605
H                0.3316887263        0.3316887263        0.8881955226
H                0.6683112737        0.6683112737        0.1118044774
H                0.3316887263        0.8881955226        0.3316887263
H                0.6683112737        0.1118044774        0.6683112737
H                0.8881955226        0.3316887263        0.3316887263
H                0.1118044774        0.6683112737        0.6683112737



     Writing config-only to output data dir ./out/cah10.save/ :
     XML data file
     NEW-OLD atomic charge density approx. for the potential
     New effective cutoffs (rho, wfc):  639.94   80.27

     total cpu time spent up to now is      800.0 secs

     per-process dynamical memory:    45.0 Mb

     Self-consistent Calculation

     iteration #  1     ecut=    80.00 Ry     beta= 0.30
     Davidson diagonalization with overlap
     c_bands:  1 eigenvalues not converged
     c_bands:  1 eigenvalues not converged
     c_bands:  1 eigenvalues not converged
     c_bands:  1 eigenvalues not converged
     c_bands:  1 eigenvalues not converged
     c_bands:  1 eigenvalues not converged
     c_bands:  1 eigenvalues not converged
     c_bands:  1 eigenvalues not converged
     c_bands:  2 eigenvalues not converged
     c_bands:  1 eigenvalues not converged
     c_bands:  1 eigenvalues not converged
     c_bands:  1 eigenvalues not converged
     c_bands:  1 eigenvalues not converged
     ethr =  1.00E-06,  avg # of iterations = 13.2

     total cpu time spent up to now is      811.2 secs

     total energy              =     -85.41223130 Ry
     estimated scf accuracy    <       0.00412589 Ry

     iteration #  2     ecut=    80.00 Ry     beta= 0.30
     Davidson diagonalization with overlap
     ethr =  2.06E-05,  avg # of iterations =  1.0

     total cpu time spent up to now is      813.7 secs

     total energy              =     -85.41171916 Ry
     estimated scf accuracy    <       0.00151028 Ry

     iteration #  3     ecut=    80.00 Ry     beta= 0.30
     Davidson diagonalization with overlap
     ethr =  7.55E-06,  avg # of iterations =  2.0

     total cpu time spent up to now is      816.7 secs

     total energy              =     -85.41188967 Ry
     estimated scf accuracy    <       0.00004894 Ry

     iteration #  4     ecut=    80.00 Ry     beta= 0.30
     Davidson diagonalization with overlap
     c_bands:  1 eigenvalues not converged
     ethr =  2.45E-07,  avg # of iterations =  4.9

     total cpu time spent up to now is      820.9 secs

     total energy              =     -85.41191777 Ry
     estimated scf accuracy    <       0.00000226 Ry

     iteration #  5     ecut=    80.00 Ry     beta= 0.30
     Davidson diagonalization with overlap
     c_bands:  1 eigenvalues not converged
     c_bands:  1 eigenvalues not converged
     ethr =  1.13E-08,  avg # of iterations =  4.3

     total cpu time spent up to now is      825.0 secs

     total energy              =     -85.41191898 Ry
     estimated scf accuracy    <       0.00000060 Ry

     iteration #  6     ecut=    80.00 Ry     beta= 0.30
     Davidson diagonalization with overlap
     ethr =  2.98E-09,  avg # of iterations =  3.6

     total cpu time spent up to now is      828.7 secs

     total energy              =     -85.41191917 Ry
     estimated scf accuracy    <       0.00000020 Ry

     iteration #  7     ecut=    80.00 Ry     beta= 0.30
     Davidson diagonalization with overlap
     ethr =  9.77E-10,  avg # of iterations =  2.1

     total cpu time spent up to now is      831.7 secs

     total energy              =     -85.41191919 Ry
     estimated scf accuracy    <       0.00000001 Ry

     iteration #  8     ecut=    80.00 Ry     beta= 0.30
     Davidson diagonalization with overlap
     ethr =  6.67E-11,  avg # of iterations =  5.7

     total cpu time spent up to now is      836.8 secs

     total energy              =     -85.41191920 Ry
     estimated scf accuracy    <          8.8E-09 Ry

     iteration #  9     ecut=    80.00 Ry     beta= 0.30
     Davidson diagonalization with overlap
     ethr =  4.38E-11,  avg # of iterations =  1.9

     total cpu time spent up to now is      839.6 secs

     total energy              =     -85.41191920 Ry
     estimated scf accuracy    <          1.0E-09 Ry

     iteration # 10     ecut=    80.00 Ry     beta= 0.30
     Davidson diagonalization with overlap
     ethr =  5.14E-12,  avg # of iterations =  4.9

     total cpu time spent up to now is      843.8 secs

     End of self-consistent calculation

     Number of k-points >= 100: set verbosity='high' to print the bands.

     the Fermi energy is    17.3692 ev

!    total energy              =     -85.41191920 Ry
     estimated scf accuracy    <          4.2E-11 Ry
     smearing contrib. (-TS)   =       0.00005347 Ry
     internal energy E=F+TS    =     -85.41197268 Ry

     The total energy is F=E-TS. E is the sum of the following terms:
     one-electron contribution =       5.52830300 Ry
     hartree contribution      =      10.35119195 Ry
     xc contribution           =     -21.25527641 Ry
     ewald contribution        =     -80.03619121 Ry

     convergence has been achieved in  10 iterations

     Forces acting on atoms (cartesian axes, Ry/au):

     atom    1 type  1   force =     0.00000000    0.00000000   -0.00000000
     atom    2 type  2   force =     0.02924600   -0.02924600   -0.02924600
     atom    3 type  2   force =    -0.02924600    0.02924600    0.02924600
     atom    4 type  2   force =    -0.00700569    0.00700569    0.00700569
     atom    5 type  2   force =     0.00700569   -0.00700569   -0.00700569
     atom    6 type  2   force =    -0.01605329    0.01605329    0.01656878
     atom    7 type  2   force =     0.01605329   -0.01605329   -0.01656878
     atom    8 type  2   force =    -0.01656878    0.01605329    0.01605329
     atom    9 type  2   force =     0.01656878   -0.01605329   -0.01605329
     atom   10 type  2   force =    -0.01605329    0.01656878    0.01605329
     atom   11 type  2   force =     0.01605329   -0.01656878   -0.01605329

     Total force =     0.100827     Total SCF correction =     0.000001


     Computing stress (Cartesian axis) and pressure

          total   stress  (Ry/bohr**3)                   (kbar)     P=     2438.73
   0.01657814  -0.00029099  -0.00029099         2438.73      -42.81      -42.81
  -0.00029099   0.01657814   0.00029099          -42.81     2438.73       42.81
  -0.00029099   0.00029099   0.01657814          -42.81       42.81     2438.73

     Energy error            =      2.3E-02 Ry
     Gradient error          =      2.9E-02 Ry/Bohr
     Cell gradient error     =      6.1E+01 kbar

     number of scf cycles    =  16
     number of bfgs steps    =  15

     enthalpy           old  =     -82.5752763600 Ry
     enthalpy           new  =     -82.5979817008 Ry

     CASE: enthalpy          _new < enthalpy          _old

     new trust radius        =       0.0903581307 bohr
     new conv_thr            =       0.0000000010 Ry

     new unit-cell volume =    162.52345 a.u.^3 (    24.08349 Ang^3 )
     density =      3.45836 g/cm^3

CELL_PARAMETERS (alat=  8.40000000)
  -0.538985861   0.044795561   0.538985861
  -0.044795561   0.538985861   0.538985861
  -0.538985861   0.538985861   0.044795561

ATOMIC_POSITIONS (crystal)
Ca               0.0000000000       -0.0000000000        0.0000000000
H                0.3086823424        0.3086823424        0.3086823424
H                0.6913176576        0.6913176576        0.6913176576
H                0.4012803834        0.4012803834        0.4012803834
H                0.5987196166        0.5987196166        0.5987196166
H                0.3376510669        0.3376510669        0.8928652557
H                0.6623489331        0.6623489331        0.1071347443
H                0.3376510669        0.8928652557        0.3376510669
H                0.6623489331        0.1071347443        0.6623489331
H                0.8928652557        0.3376510669        0.3376510669
H                0.1071347443        0.6623489331        0.6623489331



     Writing config-only to output data dir ./out/cah10.save/ :
     XML data file
     NEW-OLD atomic charge density approx. for the potential
     New effective cutoffs (rho, wfc):  652.74   81.87

     total cpu time spent up to now is      845.3 secs

     per-process dynamical memory:    45.4 Mb

     Self-consistent Calculation

     iteration #  1     ecut=    80.00 Ry     beta= 0.30
     Davidson diagonalization with overlap
     c_bands:  1 eigenvalues not converged
     c_bands:  1 eigenvalues not converged
     c_bands:  1 eigenvalues not converged
     c_bands:  1 eigenvalues not converged
     c_bands:  1 eigenvalues not converged
     c_bands:  1 eigenvalues not converged
     c_bands:  1 eigenvalues not converged
     c_bands:  1 eigenvalues not converged
     c_bands:  1 eigenvalues not converged
     c_bands:  1 eigenvalues not converged
     c_bands:  1 eigenvalues not converged
     ethr =  1.00E-06,  avg # of iterations = 13.6

     total cpu time spent up to now is      857.0 secs

     total energy              =     -85.37336966 Ry
     estimated scf accuracy    <       0.00348855 Ry

     iteration #  2     ecut=    80.00 Ry     beta= 0.30
     Davidson diagonalization with overlap
     ethr =  1.74E-05,  avg # of iterations =  1.0

     total cpu time spent up to now is      859.7 secs

     total energy              =     -85.37300962 Ry
     estimated scf accuracy    <       0.00140542 Ry

     iteration #  3     ecut=    80.00 Ry     beta= 0.30
     Davidson diagonalization with overlap
     ethr =  7.03E-06,  avg # of iterations =  1.5

     total cpu time spent up to now is      862.3 secs

     total energy              =     -85.37308895 Ry
     estimated scf accuracy    <       0.00005252 Ry

     iteration #  4     ecut=    80.00 Ry     beta= 0.30
     Davidson diagonalization with overlap
     c_bands:  1 eigenvalues not converged
     ethr =  2.63E-07,  avg # of iterations =  4.6

     total cpu time spent up to now is      866.3 secs

     total energy              =     -85.37311175 Ry
     estimated scf accuracy    <       0.00000311 Ry

     iteration #  5     ecut=    80.00 Ry     beta= 0.30
     Davidson diagonalization with overlap
     ethr =  1.56E-08,  avg # of iterations =  4.4

     total cpu time spent up to now is      870.4 secs

     total energy              =     -85.37311355 Ry
     estimated scf accuracy    <       0.00000082 Ry

     iteration #  6     ecut=    80.00 Ry     beta= 0.30
     Davidson diagonalization with overlap
     ethr =  4.10E-09,  avg # of iterations =  3.9

     total cpu time spent up to now is      874.2 secs

     total energy              =     -85.37311385 Ry
     estimated scf accuracy    <       0.00000053 Ry

     iteration #  7     ecut=    80.00 Ry     beta= 0.30
     Davidson diagonalization with overlap
     ethr =  2.67E-09,  avg # of iterations =  1.5

     total cpu time spent up to now is      876.9 secs

     total energy              =     -85.37311384 Ry
     estimated scf accuracy    <       0.00000009 Ry

     iteration #  8     ecut=    80.00 Ry     beta= 0.30
     Davidson diagonalization with overlap
     ethr =  4.53E-10,  avg # of iterations =  4.2

     total cpu time spent up to now is      880.8 secs

     total energy              =     -85.37311389 Ry
     estimated scf accuracy    <          3.8E-09 Ry

     iteration #  9     ecut=    80.00 Ry     beta= 0.30
     Davidson diagonalization with overlap
     ethr =  1.90E-11,  avg # of iterations =  5.1

     total cpu time spent up to now is      885.5 secs

     total energy              =     -85.37311389 Ry
     estimated scf accuracy    <          1.7E-09 Ry

     iteration # 10     ecut=    80.00 Ry     beta= 0.30
     Davidson diagonalization with overlap
     ethr =  8.32E-12,  avg # of iterations =  3.4

     total cpu time spent up to now is      889.0 secs

     End of self-consistent calculation

     Number of k-points >= 100: set verbosity='high' to print the bands.

     the Fermi energy is    17.6270 ev

!    total energy              =     -85.37311389 Ry
     estimated scf accuracy    <          3.4E-10 Ry
     smearing contrib. (-TS)   =      -0.00006982 Ry
     internal energy E=F+TS    =     -85.37304407 Ry

     The total energy is F=E-TS. E is the sum of the following terms:
     one-electron contribution =       6.49674999 Ry
     hartree contribution      =      10.12720061 Ry
     xc contribution           =     -21.28118796 Ry
     ewald contribution        =     -80.71580670 Ry

     convergence has been achieved in  10 iterations

     Forces acting on atoms (cartesian axes, Ry/au):

     atom    1 type  1   force =     0.00000000    0.00000000    0.00000000
     atom    2 type  2   force =     0.01785938   -0.01785938   -0.01785938
     atom    3 type  2   force =    -0.01785938    0.01785938    0.01785938
     atom    4 type  2   force =     0.00570425   -0.00570425   -0.00570425
     atom    5 type  2   force =    -0.00570425    0.00570425    0.00570425
     atom    6 type  2   force =    -0.00620774    0.00620774    0.00465690
     atom    7 type  2   force =     0.00620774   -0.00620774   -0.00465690
     atom    8 type  2   force =    -0.00465690    0.00620774    0.00620774
     atom    9 type  2   force =     0.00465690   -0.00620774   -0.00620774
     atom   10 type  2   force =    -0.00620774    0.00465690    0.00620774
     atom   11 type  2   force =     0.00620774   -0.00465690   -0.00620774

     Total force =     0.051976     Total SCF correction =     0.000005


     Computing stress (Cartesian axis) and pressure

          total   stress  (Ry/bohr**3)                   (kbar)     P=     2522.94
   0.01715057   0.00002003   0.00002003         2522.94        2.95        2.95
   0.00002003   0.01715057  -0.00002003            2.95     2522.94       -2.95
   0.00002003  -0.00002003   0.01715057            2.95       -2.95     2522.94

     Energy error            =      1.3E-02 Ry
     Gradient error          =      1.8E-02 Ry/Bohr
     Cell gradient error     =      2.3E+01 kbar

     number of scf cycles    =  17
     number of bfgs steps    =  16

     enthalpy           old  =     -82.5979817008 Ry
     enthalpy           new  =     -82.6110839360 Ry

     CASE: enthalpy          _new < enthalpy          _old

     new trust radius        =       0.1147962092 bohr
     new conv_thr            =       0.0000000010 Ry

     new unit-cell volume =    160.82706 a.u.^3 (    23.83211 Ang^3 )
     density =      3.49484 g/cm^3

CELL_PARAMETERS (alat=  8.40000000)
  -0.540534510   0.050941215   0.540534510
  -0.050941215   0.540534510   0.540534510
  -0.540534510   0.540534510   0.050941215

ATOMIC_POSITIONS (crystal)
Ca              -0.0000000000       -0.0000000000        0.0000000000
H                0.3016548905        0.3016548905        0.3016548905
H                0.6983451095        0.6983451095        0.6983451095
H                0.3972290023        0.3972290023        0.3972290023
H                0.6027709977        0.6027709977        0.6027709977
H                0.3411918377        0.3411918377        0.8870875825
H                0.6588081623        0.6588081623        0.1129124175
H                0.3411918377        0.8870875825        0.3411918377
H                0.6588081623        0.1129124175        0.6588081623
H                0.8870875825        0.3411918377        0.3411918377
H                0.1129124175        0.6588081623        0.6588081623



     Writing config-only to output data dir ./out/cah10.save/ :
     XML data file
     NEW-OLD atomic charge density approx. for the potential
     New effective cutoffs (rho, wfc):  665.04   83.42

     total cpu time spent up to now is      890.6 secs

     per-process dynamical memory:    45.4 Mb

     Self-consistent Calculation

     iteration #  1     ecut=    80.00 Ry     beta= 0.30
     Davidson diagonalization with overlap
     c_bands:  1 eigenvalues not converged
     c_bands:  1 eigenvalues not converged
     c_bands:  1 eigenvalues not converged
     c_bands:  1 eigenvalues not converged
     c_bands:  1 eigenvalues not converged
     c_bands:  1 eigenvalues not converged
     c_bands:  1 eigenvalues not converged
     c_bands:  2 eigenvalues not converged
     ethr =  1.00E-06,  avg # of iterations = 12.1

     total cpu time spent up to now is      901.1 secs

     total energy              =     -85.35082916 Ry
     estimated scf accuracy    <       0.00182603 Ry

     iteration #  2     ecut=    80.00 Ry     beta= 0.30
     Davidson diagonalization with overlap
     ethr =  9.13E-06,  avg # of iterations =  1.0

     total cpu time spent up to now is      903.8 secs

     total energy              =     -85.35067504 Ry
     estimated scf accuracy    <       0.00068113 Ry

     iteration #  3     ecut=    80.00 Ry     beta= 0.30
     Davidson diagonalization with overlap
     ethr =  3.41E-06,  avg # of iterations =  1.9

     total cpu time spent up to now is      906.6 secs

     total energy              =     -85.35073391 Ry
     estimated scf accuracy    <       0.00003115 Ry

     iteration #  4     ecut=    80.00 Ry     beta= 0.30
     Davidson diagonalization with overlap
     ethr =  1.56E-07,  avg # of iterations =  4.9

     total cpu time spent up to now is      910.6 secs

     total energy              =     -85.35075132 Ry
     estimated scf accuracy    <       0.00000187 Ry

     iteration #  5     ecut=    80.00 Ry     beta= 0.30
     Davidson diagonalization with overlap
     ethr =  9.36E-09,  avg # of iterations =  4.0

     total cpu time spent up to now is      914.5 secs

     total energy              =     -85.35075238 Ry
     estimated scf accuracy    <       0.00000033 Ry

     iteration #  6     ecut=    80.00 Ry     beta= 0.30
     Davidson diagonalization with overlap
     ethr =  1.63E-09,  avg # of iterations =  4.0

     total cpu time spent up to now is      918.2 secs

     total energy              =     -85.35075246 Ry
     estimated scf accuracy    <       0.00000021 Ry

     iteration #  7     ecut=    80.00 Ry     beta= 0.30
     Davidson diagonalization with overlap
     ethr =  1.04E-09,  avg # of iterations =  1.8

     total cpu time spent up to now is      920.9 secs

     total energy              =     -85.35075247 Ry
     estimated scf accuracy    <       0.00000002 Ry

     iteration #  8     ecut=    80.00 Ry     beta= 0.30
     Davidson diagonalization with overlap
     ethr =  9.15E-11,  avg # of iterations =  5.2

     total cpu time spent up to now is      925.4 secs

     total energy              =     -85.35075249 Ry
     estimated scf accuracy    <          8.1E-09 Ry

     iteration #  9     ecut=    80.00 Ry     beta= 0.30
     Davidson diagonalization with overlap
     ethr =  4.05E-11,  avg # of iterations =  1.5

     total cpu time spent up to now is      928.0 secs

     total energy              =     -85.35075249 Ry
     estimated scf accuracy    <          2.6E-09 Ry

     iteration # 10     ecut=    80.00 Ry     beta= 0.30
     Davidson diagonalization with overlap
     ethr =  1.29E-11,  avg # of iterations =  2.6

     total cpu time spent up to now is      931.1 secs

     End of self-consistent calculation

     Number of k-points >= 100: set verbosity='high' to print the bands.

     the Fermi energy is    17.7857 ev

!    total energy              =     -85.35075249 Ry
     estimated scf accuracy    <          2.8E-10 Ry
     smearing contrib. (-TS)   =       0.00010299 Ry
     internal energy E=F+TS    =     -85.35085548 Ry

     The total energy is F=E-TS. E is the sum of the following terms:
     one-electron contribution =       6.94434216 Ry
     hartree contribution      =      10.05196214 Ry
     xc contribution           =     -21.30768327 Ry
     ewald contribution        =     -81.03947651 Ry

     convergence has been achieved in  10 iterations

     Forces acting on atoms (cartesian axes, Ry/au):

     atom    1 type  1   force =     0.00000000    0.00000000   -0.00000000
     atom    2 type  2   force =     0.01038913   -0.01038913   -0.01038913
     atom    3 type  2   force =    -0.01038913    0.01038913    0.01038913
     atom    4 type  2   force =     0.00916351   -0.00916351   -0.00916351
     atom    5 type  2   force =    -0.00916351    0.00916351    0.00916351
     atom    6 type  2   force =    -0.00515757    0.00515757    0.00463213
     atom    7 type  2   force =     0.00515757   -0.00515757   -0.00463213
     atom    8 type  2   force =    -0.00463213    0.00515757    0.00515757
     atom    9 type  2   force =     0.00463213   -0.00515757   -0.00515757
     atom   10 type  2   force =    -0.00515757    0.00463213    0.00515757
     atom   11 type  2   force =     0.00515757   -0.00463213   -0.00515757

     Total force =     0.039992     Total SCF correction =     0.000009


     Computing stress (Cartesian axis) and pressure

          total   stress  (Ry/bohr**3)                   (kbar)     P=     2588.51
   0.01759633   0.00016807   0.00016807         2588.51       24.72       24.72
   0.00016807   0.01759633  -0.00016807           24.72     2588.51      -24.72
   0.00016807  -0.00016807   0.01759633           24.72      -24.72     2588.51

     Energy error            =      6.5E-03 Ry
     Gradient error          =      1.0E-02 Ry/Bohr
     Cell gradient error     =      8.9E+01 kbar

     number of scf cycles    =  18
     number of bfgs steps    =  17

     enthalpy           old  =     -82.6110839360 Ry
     enthalpy           new  =     -82.6175520818 Ry

     CASE: enthalpy          _new < enthalpy          _old

     new trust radius        =       0.1273153698 bohr
     new conv_thr            =       0.0000000010 Ry

     new unit-cell volume =    160.72869 a.u.^3 (    23.81753 Ang^3 )
     density =      3.49697 g/cm^3

CELL_PARAMETERS (alat=  8.40000000)
  -0.542717422   0.055108175   0.542717422
  -0.055108175   0.542717422   0.542717422
  -0.542717422   0.542717422   0.055108175

ATOMIC_POSITIONS (crystal)
Ca              -0.0000000000       -0.0000000000        0.0000000000
H                0.2939246934        0.2939246934        0.2939246934
H                0.7060753066        0.7060753066        0.7060753066
H                0.3921541962        0.3921541962        0.3921541962
H                0.6078458038        0.6078458038        0.6078458038
H                0.3465019042        0.3465019042        0.8800797974
H                0.6534980958        0.6534980958        0.1199202026
H                0.3465019042        0.8800797974        0.3465019042
H                0.6534980958        0.1199202026        0.6534980958
H                0.8800797974        0.3465019042        0.3465019042
H                0.1199202026        0.6534980958        0.6534980958



     Writing config-only to output data dir ./out/cah10.save/ :
     XML data file
     NEW-OLD atomic charge density approx. for the potential
     New effective cutoffs (rho, wfc):  670.45   84.10

     total cpu time spent up to now is      932.7 secs

     per-process dynamical memory:    45.7 Mb

     Self-consistent Calculation

     iteration #  1     ecut=    80.00 Ry     beta= 0.30
     Davidson diagonalization with overlap
     c_bands:  1 eigenvalues not converged
     c_bands:  1 eigenvalues not converged
     c_bands:  1 eigenvalues not converged
     c_bands:  1 eigenvalues not converged
     c_bands:  1 eigenvalues not converged
     c_bands:  1 eigenvalues not converged
     c_bands:  1 eigenvalues not converged
     c_bands:  1 eigenvalues not converged
     c_bands:  2 eigenvalues not converged
     ethr =  1.00E-06,  avg # of iterations = 11.6

     total cpu time spent up to now is      942.1 secs

     total energy              =     -85.35500077 Ry
     estimated scf accuracy    <       0.00174328 Ry

     iteration #  2     ecut=    80.00 Ry     beta= 0.30
     Davidson diagonalization with overlap
     ethr =  8.72E-06,  avg # of iterations =  1.0

     total cpu time spent up to now is      944.7 secs

     total energy              =     -85.35486780 Ry
     estimated scf accuracy    <       0.00067961 Ry

     iteration #  3     ecut=    80.00 Ry     beta= 0.30
     Davidson diagonalization with overlap
     ethr =  3.40E-06,  avg # of iterations =  1.8

     total cpu time spent up to now is      947.5 secs

     total energy              =     -85.35492364 Ry
     estimated scf accuracy    <       0.00002578 Ry

     iteration #  4     ecut=    80.00 Ry     beta= 0.30
     Davidson diagonalization with overlap
     ethr =  1.29E-07,  avg # of iterations =  4.7

     total cpu time spent up to now is      951.5 secs

     total energy              =     -85.35493787 Ry
     estimated scf accuracy    <       0.00000152 Ry

     iteration #  5     ecut=    80.00 Ry     beta= 0.30
     Davidson diagonalization with overlap
     ethr =  7.62E-09,  avg # of iterations =  4.1

     total cpu time spent up to now is      955.5 secs

     total energy              =     -85.35493872 Ry
     estimated scf accuracy    <       0.00000036 Ry

     iteration #  6     ecut=    80.00 Ry     beta= 0.30
     Davidson diagonalization with overlap
     ethr =  1.78E-09,  avg # of iterations =  3.9

     total cpu time spent up to now is      958.5 secs

     total energy              =     -85.35493881 Ry
     estimated scf accuracy    <       0.00000020 Ry

     iteration #  7     ecut=    80.00 Ry     beta= 0.30
     Davidson diagonalization with overlap
     ethr =  1.01E-09,  avg # of iterations =  1.8

     total cpu time spent up to now is      960.0 secs

     total energy              =     -85.35493882 Ry
     estimated scf accuracy    <       0.00000002 Ry

     iteration #  8     ecut=    80.00 Ry     beta= 0.30
     Davidson diagonalization with overlap
     ethr =  7.87E-11,  avg # of iterations =  5.6

     total cpu time spent up to now is      962.8 secs

     total energy              =     -85.35493883 Ry
     estimated scf accuracy    <       0.00000002 Ry

     iteration #  9     ecut=    80.00 Ry     beta= 0.30
     Davidson diagonalization with overlap
     ethr =  7.71E-11,  avg # of iterations =  1.4

     total cpu time spent up to now is      964.3 secs

     total energy              =     -85.35493884 Ry
     estimated scf accuracy    <          2.4E-09 Ry

     iteration # 10     ecut=    80.00 Ry     beta= 0.30
     Davidson diagonalization with overlap
     ethr =  1.20E-11,  avg # of iterations =  3.9

     total cpu time spent up to now is      966.4 secs

     End of self-consistent calculation

     Number of k-points >= 100: set verbosity='high' to print the bands.

     the Fermi energy is    17.7291 ev

!    total energy              =     -85.35493884 Ry
     estimated scf accuracy    <          7.3E-11 Ry
     smearing contrib. (-TS)   =      -0.00012301 Ry
     internal energy E=F+TS    =     -85.35481583 Ry

     The total energy is F=E-TS. E is the sum of the following terms:
     one-electron contribution =       6.97451034 Ry
     hartree contribution      =      10.05246613 Ry
     xc contribution           =     -21.30651363 Ry
     ewald contribution        =     -81.07527867 Ry

     convergence has been achieved in  10 iterations

     Forces acting on atoms (cartesian axes, Ry/au):

     atom    1 type  1   force =     0.00000000    0.00000000    0.00000000
     atom    2 type  2   force =     0.00516634   -0.00516634   -0.00516634
     atom    3 type  2   force =    -0.00516634    0.00516634    0.00516634
     atom    4 type  2   force =     0.00849749   -0.00849749   -0.00849749
     atom    5 type  2   force =    -0.00849749    0.00849749    0.00849749
     atom    6 type  2   force =    -0.00288780    0.00288780    0.00233513
     atom    7 type  2   force =     0.00288780   -0.00288780   -0.00233513
     atom    8 type  2   force =    -0.00233513    0.00288780    0.00288780
     atom    9 type  2   force =     0.00233513   -0.00288780   -0.00288780
     atom   10 type  2   force =    -0.00288780    0.00233513    0.00288780
     atom   11 type  2   force =     0.00288780   -0.00233513   -0.00288780

     Total force =     0.026948     Total SCF correction =     0.000003


     Computing stress (Cartesian axis) and pressure

          total   stress  (Ry/bohr**3)                   (kbar)     P=     2588.28
   0.01759476   0.00024514   0.00024514         2588.28       36.06       36.06
   0.00024514   0.01759476  -0.00024514           36.06     2588.28      -36.06
   0.00024514  -0.00024514   0.01759476           36.06      -36.06     2588.28

     Energy error            =      5.9E-03 Ry
     Gradient error          =      8.5E-03 Ry/Bohr
     Cell gradient error     =      8.8E+01 kbar

     number of scf cycles    =  19
     number of bfgs steps    =  18

     enthalpy           old  =     -82.6175520818 Ry
     enthalpy           new  =     -82.6234103246 Ry

     CASE: enthalpy          _new < enthalpy          _old

     new trust radius        =       0.1843479650 bohr
     new conv_thr            =       0.0000000008 Ry

     new unit-cell volume =    161.93926 a.u.^3 (    23.99692 Ang^3 )
     density =      3.47083 g/cm^3

CELL_PARAMETERS (alat=  8.40000000)
  -0.544868432   0.056682321   0.544868432
  -0.056682321   0.544868432   0.544868432
  -0.544868432   0.544868432   0.056682321

ATOMIC_POSITIONS (crystal)
Ca              -0.0000000000       -0.0000000000        0.0000000000
H                0.2828153916        0.2828153916        0.2828153916
H                0.7171846084        0.7171846084        0.7171846084
H                0.3842386387        0.3842386387        0.3842386387
H                0.6157613613        0.6157613613        0.6157613613
H                0.3543797957        0.3543797957        0.8688608308
H                0.6456202043        0.6456202043        0.1311391692
H                0.3543797957        0.8688608308        0.3543797957
H                0.6456202043        0.1311391692        0.6456202043
H                0.8688608308        0.3543797957        0.3543797957
H                0.1311391692        0.6456202043        0.6456202043



     Writing config-only to output data dir ./out/cah10.save/ :
     XML data file
     NEW-OLD atomic charge density approx. for the potential
     New effective cutoffs (rho, wfc):  668.86   83.90

     total cpu time spent up to now is      967.2 secs

     per-process dynamical memory:    45.7 Mb

     Self-consistent Calculation

     iteration #  1     ecut=    80.00 Ry     beta= 0.30
     Davidson diagonalization with overlap
     c_bands:  1 eigenvalues not converged
     c_bands:  1 eigenvalues not converged
     c_bands:  1 eigenvalues not converged
     c_bands:  1 eigenvalues not converged
     c_bands:  1 eigenvalues not converged
     c_bands:  1 eigenvalues not converged
     c_bands:  1 eigenvalues not converged
     c_bands:  1 eigenvalues not converged
     c_bands:  1 eigenvalues not converged
     c_bands:  1 eigenvalues not converged
     c_bands:  1 eigenvalues not converged
     c_bands:  1 eigenvalues not converged
     c_bands:  1 eigenvalues not converged
     ethr =  1.00E-06,  avg # of iterations = 12.5

     total cpu time spent up to now is      973.0 secs

     total energy              =     -85.37996198 Ry
     estimated scf accuracy    <       0.00204394 Ry

     iteration #  2     ecut=    80.00 Ry     beta= 0.30
     Davidson diagonalization with overlap
     ethr =  1.02E-05,  avg # of iterations =  1.0

     total cpu time spent up to now is      974.5 secs

     total energy              =     -85.37988981 Ry
     estimated scf accuracy    <       0.00088880 Ry

     iteration #  3     ecut=    80.00 Ry     beta= 0.30
     Davidson diagonalization with overlap
     ethr =  4.44E-06,  avg # of iterations =  1.3

     total cpu time spent up to now is      976.0 secs

     total energy              =     -85.37994510 Ry
     estimated scf accuracy    <       0.00001032 Ry

     iteration #  4     ecut=    80.00 Ry     beta= 0.30
     Davidson diagonalization with overlap
     c_bands:  1 eigenvalues not converged
     ethr =  5.16E-08,  avg # of iterations =  5.3

     total cpu time spent up to now is      978.7 secs

     total energy              =     -85.37995721 Ry
     estimated scf accuracy    <       0.00000176 Ry

     iteration #  5     ecut=    80.00 Ry     beta= 0.30
     Davidson diagonalization with overlap
     ethr =  8.80E-09,  avg # of iterations =  2.7

     total cpu time spent up to now is      980.6 secs

     total energy              =     -85.37995713 Ry
     estimated scf accuracy    <       0.00000114 Ry

     iteration #  6     ecut=    80.00 Ry     beta= 0.30
     Davidson diagonalization with overlap
     ethr =  5.71E-09,  avg # of iterations =  2.1

     total cpu time spent up to now is      982.3 secs

     total energy              =     -85.37995733 Ry
     estimated scf accuracy    <       0.00000007 Ry

     iteration #  7     ecut=    80.00 Ry     beta= 0.30
     Davidson diagonalization with overlap
     ethr =  3.42E-10,  avg # of iterations =  4.6

     total cpu time spent up to now is      984.7 secs

     total energy              =     -85.37995736 Ry
     estimated scf accuracy    <       0.00000002 Ry

     iteration #  8     ecut=    80.00 Ry     beta= 0.30
     Davidson diagonalization with overlap
     ethr =  8.19E-11,  avg # of iterations =  2.6

     total cpu time spent up to now is      986.5 secs

     End of self-consistent calculation

     Number of k-points >= 100: set verbosity='high' to print the bands.

     the Fermi energy is    17.5252 ev

!    total energy              =     -85.37995736 Ry
     estimated scf accuracy    <          6.9E-10 Ry
     smearing contrib. (-TS)   =      -0.00018735 Ry
     internal energy E=F+TS    =     -85.37977002 Ry

     The total energy is F=E-TS. E is the sum of the following terms:
     one-electron contribution =       6.68604789 Ry
     hartree contribution      =      10.09815770 Ry
     xc contribution           =     -21.28509423 Ry
     ewald contribution        =     -80.87888137 Ry

     convergence has been achieved in   8 iterations

     Forces acting on atoms (cartesian axes, Ry/au):

     atom    1 type  1   force =     0.00000000    0.00000000    0.00000000
     atom    2 type  2   force =    -0.00095414    0.00095414    0.00095414
     atom    3 type  2   force =     0.00095414   -0.00095414   -0.00095414
     atom    4 type  2   force =     0.00489439   -0.00489439   -0.00489439
     atom    5 type  2   force =    -0.00489439    0.00489439    0.00489439
     atom    6 type  2   force =    -0.00230155    0.00230155   -0.00167134
     atom    7 type  2   force =     0.00230155   -0.00230155    0.00167134
     atom    8 type  2   force =     0.00167134    0.00230155    0.00230155
     atom    9 type  2   force =    -0.00167134   -0.00230155   -0.00230155
     atom   10 type  2   force =    -0.00230155   -0.00167134    0.00230155
     atom   11 type  2   force =     0.00230155    0.00167134   -0.00230155

     Total force =     0.015150     Total SCF correction =     0.000016


     Computing stress (Cartesian axis) and pressure

          total   stress  (Ry/bohr**3)                   (kbar)     P=     2535.58
   0.01723655   0.00028043   0.00028043         2535.58       41.25       41.25
   0.00028043   0.01723655  -0.00028043           41.25     2535.58      -41.25
   0.00028043  -0.00028043   0.01723655           41.25      -41.25     2535.58

     Energy error            =      4.4E-03 Ry
     Gradient error          =      4.9E-03 Ry/Bohr
     Cell gradient error     =      4.1E+01 kbar

     number of scf cycles    =  20
     number of bfgs steps    =  19

     enthalpy           old  =     -82.6234103246 Ry
     enthalpy           new  =     -82.6278556147 Ry

     CASE: enthalpy          _new < enthalpy          _old

     new trust radius        =       0.0181338862 bohr
     new conv_thr            =       0.0000000005 Ry

     new unit-cell volume =    162.74618 a.u.^3 (    24.11650 Ang^3 )
     density =      3.45362 g/cm^3

CELL_PARAMETERS (alat=  8.40000000)
  -0.543016076   0.051764220   0.543016076
  -0.051764220   0.543016076   0.543016076
  -0.543016076   0.543016076   0.051764220

ATOMIC_POSITIONS (crystal)
Ca              -0.0000000000        0.0000000000        0.0000000000
H                0.2825004525        0.2825004525        0.2825004525
H                0.7174995475        0.7174995475        0.7174995475
H                0.3839922253        0.3839922253        0.3839922253
H                0.6160077747        0.6160077747        0.6160077747
H                0.3552616582        0.3552616582        0.8703388703
H                0.6447383418        0.6447383418        0.1296611297
H                0.3552616582        0.8703388703        0.3552616582
H                0.6447383418        0.1296611297        0.6447383418
H                0.8703388703        0.3552616582        0.3552616582
H                0.1296611297        0.6447383418        0.6447383418



     Writing config-only to output data dir ./out/cah10.save/ :
     XML data file
     NEW-OLD atomic charge density approx. for the potential
     New effective cutoffs (rho, wfc):  660.55   82.86

     total cpu time spent up to now is      987.4 secs

     per-process dynamical memory:    45.7 Mb

     Self-consistent Calculation

     iteration #  1     ecut=    80.00 Ry     beta= 0.30
     Davidson diagonalization with overlap
     c_bands:  1 eigenvalues not converged
     c_bands:  1 eigenvalues not converged
     ethr =  1.00E-06,  avg # of iterations =  9.2

     total cpu time spent up to now is      992.0 secs

     total energy              =     -85.39487317 Ry
     estimated scf accuracy    <       0.00014099 Ry

     iteration #  2     ecut=    80.00 Ry     beta= 0.30
     Davidson diagonalization with overlap
     ethr =  7.05E-07,  avg # of iterations =  1.2

     total cpu time spent up to now is      993.5 secs

     total energy              =     -85.39486328 Ry
     estimated scf accuracy    <       0.00004980 Ry

     iteration #  3     ecut=    80.00 Ry     beta= 0.30
     Davidson diagonalization with overlap
     ethr =  2.49E-07,  avg # of iterations =  2.1

     total cpu time spent up to now is      995.2 secs

     total energy              =     -85.39487073 Ry
     estimated scf accuracy    <       0.00000282 Ry

     iteration #  4     ecut=    80.00 Ry     beta= 0.30
     Davidson diagonalization with overlap
     ethr =  1.41E-08,  avg # of iterations =  4.7

     total cpu time spent up to now is      997.6 secs

     total energy              =     -85.39487241 Ry
     estimated scf accuracy    <       0.00000008 Ry

     iteration #  5     ecut=    80.00 Ry     beta= 0.30
     Davidson diagonalization with overlap
     ethr =  4.20E-10,  avg # of iterations =  5.1

     total cpu time spent up to now is     1000.1 secs

     total energy              =     -85.39487249 Ry
     estimated scf accuracy    <       0.00000001 Ry

     iteration #  6     ecut=    80.00 Ry     beta= 0.30
     Davidson diagonalization with overlap
     ethr =  7.34E-11,  avg # of iterations =  3.5

     total cpu time spent up to now is     1002.1 secs

     total energy              =     -85.39487250 Ry
     estimated scf accuracy    <          2.5E-09 Ry

     iteration #  7     ecut=    80.00 Ry     beta= 0.30
     Davidson diagonalization with overlap
     ethr =  1.24E-11,  avg # of iterations =  4.5

     total cpu time spent up to now is     1004.4 secs

     total energy              =     -85.39487250 Ry
     estimated scf accuracy    <          3.8E-09 Ry

     iteration #  8     ecut=    80.00 Ry     beta= 0.30
     Davidson diagonalization with overlap
     ethr =  1.24E-11,  avg # of iterations =  2.1

     total cpu time spent up to now is     1006.2 secs

     End of self-consistent calculation

     Number of k-points >= 100: set verbosity='high' to print the bands.

     the Fermi energy is    17.4019 ev

!    total energy              =     -85.39487250 Ry
     estimated scf accuracy    <          1.8E-10 Ry
     smearing contrib. (-TS)   =      -0.00019393 Ry
     internal energy E=F+TS    =     -85.39467857 Ry

     The total energy is F=E-TS. E is the sum of the following terms:
     one-electron contribution =       6.52273507 Ry
     hartree contribution      =      10.11108467 Ry
     xc contribution           =     -21.26506452 Ry
     ewald contribution        =     -80.76343379 Ry

     convergence has been achieved in   8 iterations

     Forces acting on atoms (cartesian axes, Ry/au):

     atom    1 type  1   force =     0.00000000    0.00000000   -0.00000000
     atom    2 type  2   force =    -0.00021550    0.00021550    0.00021550
     atom    3 type  2   force =     0.00021550   -0.00021550   -0.00021550
     atom    4 type  2   force =     0.00315936   -0.00315936   -0.00315936
     atom    5 type  2   force =    -0.00315936    0.00315936    0.00315936
     atom    6 type  2   force =     0.00136689   -0.00136689   -0.00226215
     atom    7 type  2   force =    -0.00136689    0.00136689    0.00226215
     atom    8 type  2   force =     0.00226215   -0.00136689   -0.00136689
     atom    9 type  2   force =    -0.00226215    0.00136689    0.00136689
     atom   10 type  2   force =     0.00136689   -0.00226215   -0.00136689
     atom   11 type  2   force =    -0.00136689    0.00226215    0.00136689

     Total force =     0.010644     Total SCF correction =     0.000007


     Computing stress (Cartesian axis) and pressure

          total   stress  (Ry/bohr**3)                   (kbar)     P=     2492.44
   0.01694326   0.00021492   0.00021492         2492.44       31.62       31.62
   0.00021492   0.01694326  -0.00021492           31.62     2492.44      -31.62
   0.00021492  -0.00021492   0.01694326           31.62      -31.62     2492.44

     Energy error            =      1.2E-03 Ry
     Gradient error          =      3.2E-03 Ry/Bohr
     Cell gradient error     =      3.2E+01 kbar

     number of scf cycles    =  21
     number of bfgs steps    =  20

     enthalpy           old  =     -82.6278556147 Ry
     enthalpy           new  =     -82.6290573356 Ry

     CASE: enthalpy          _new < enthalpy          _old

     new trust radius        =       0.0328389157 bohr
     new conv_thr            =       0.0000000003 Ry

     new unit-cell volume =    163.22102 a.u.^3 (    24.18686 Ang^3 )
     density =      3.44358 g/cm^3

CELL_PARAMETERS (alat=  8.40000000)
  -0.538193682   0.041968049   0.538193682
  -0.041968049   0.538193682   0.538193682
  -0.538193682   0.538193682   0.041968049

ATOMIC_POSITIONS (crystal)
Ca              -0.0000000000        0.0000000000        0.0000000000
H                0.2807358162        0.2807358162        0.2807358162
H                0.7192641838        0.7192641838        0.7192641838
H                0.3822589452        0.3822589452        0.3822589452
H                0.6177410548        0.6177410548        0.6177410548
H                0.3560123584        0.3560123584        0.8686202760
H                0.6439876416        0.6439876416        0.1313797240
H                0.3560123584        0.8686202760        0.3560123584
H                0.6439876416        0.1313797240        0.6439876416
H                0.8686202760        0.3560123584        0.3560123584
H                0.1313797240        0.6439876416        0.6439876416



     Writing config-only to output data dir ./out/cah10.save/ :
     XML data file
     NEW-OLD atomic charge density approx. for the potential
     New effective cutoffs (rho, wfc):  647.41   81.20

     total cpu time spent up to now is     1007.0 secs

     per-process dynamical memory:    45.7 Mb

     Self-consistent Calculation

     iteration #  1     ecut=    80.00 Ry     beta= 0.30
     Davidson diagonalization with overlap
     c_bands:  1 eigenvalues not converged
     c_bands:  1 eigenvalues not converged
     c_bands:  1 eigenvalues not converged
     c_bands:  1 eigenvalues not converged
     c_bands:  1 eigenvalues not converged
     c_bands:  1 eigenvalues not converged
     c_bands:  1 eigenvalues not converged
     c_bands:  1 eigenvalues not converged
     c_bands:  1 eigenvalues not converged
     c_bands:  1 eigenvalues not converged
     c_bands:  1 eigenvalues not converged
     c_bands:  1 eigenvalues not converged
     c_bands:  1 eigenvalues not converged
     c_bands:  1 eigenvalues not converged
     ethr =  1.00E-06,  avg # of iterations = 12.5

     total cpu time spent up to now is     1012.9 secs

     total energy              =     -85.40433992 Ry
     estimated scf accuracy    <       0.00058855 Ry

     iteration #  2     ecut=    80.00 Ry     beta= 0.30
     Davidson diagonalization with overlap
     ethr =  2.94E-06,  avg # of iterations =  1.3

     total cpu time spent up to now is     1014.4 secs

     total energy              =     -85.40428842 Ry
     estimated scf accuracy    <       0.00015568 Ry

     iteration #  3     ecut=    80.00 Ry     beta= 0.30
     Davidson diagonalization with overlap
     c_bands:  1 eigenvalues not converged
     ethr =  7.78E-07,  avg # of iterations =  3.1

     total cpu time spent up to now is     1016.4 secs

     total energy              =     -85.40432961 Ry
     estimated scf accuracy    <       0.00000602 Ry

     iteration #  4     ecut=    80.00 Ry     beta= 0.30
     Davidson diagonalization with overlap
     ethr =  3.01E-08,  avg # of iterations =  5.3

     total cpu time spent up to now is     1019.0 secs

     total energy              =     -85.40433567 Ry
     estimated scf accuracy    <       0.00000224 Ry

     iteration #  5     ecut=    80.00 Ry     beta= 0.30
     Davidson diagonalization with overlap
     ethr =  1.12E-08,  avg # of iterations =  2.3

     total cpu time spent up to now is     1020.8 secs

     total energy              =     -85.40433599 Ry
     estimated scf accuracy    <       0.00000024 Ry

     iteration #  6     ecut=    80.00 Ry     beta= 0.30
     Davidson diagonalization with overlap
     ethr =  1.21E-09,  avg # of iterations =  5.4

     total cpu time spent up to now is     1023.4 secs

     total energy              =     -85.40433619 Ry
     estimated scf accuracy    <       0.00000009 Ry

     iteration #  7     ecut=    80.00 Ry     beta= 0.30
     Davidson diagonalization with overlap
     ethr =  4.25E-10,  avg # of iterations =  1.6

     total cpu time spent up to now is     1024.9 secs

     total energy              =     -85.40433618 Ry
     estimated scf accuracy    <       0.00000003 Ry

     iteration #  8     ecut=    80.00 Ry     beta= 0.30
     Davidson diagonalization with overlap
     ethr =  1.40E-10,  avg # of iterations =  3.8

     total cpu time spent up to now is     1027.1 secs

     total energy              =     -85.40433619 Ry
     estimated scf accuracy    <          3.8E-09 Ry

     iteration #  9     ecut=    80.00 Ry     beta= 0.30
     Davidson diagonalization with overlap
     ethr =  1.91E-11,  avg # of iterations =  4.0

     total cpu time spent up to now is     1029.3 secs

     total energy              =     -85.40433619 Ry
     estimated scf accuracy    <          4.7E-10 Ry

     iteration # 10     ecut=    80.00 Ry     beta= 0.30
     Davidson diagonalization with overlap
     ethr =  2.36E-12,  avg # of iterations =  3.9

     total cpu time spent up to now is     1031.5 secs

     End of self-consistent calculation

     Number of k-points >= 100: set verbosity='high' to print the bands.

     the Fermi energy is    17.3431 ev

!    total energy              =     -85.40433619 Ry
     estimated scf accuracy    <          2.8E-11 Ry
     smearing contrib. (-TS)   =      -0.00012975 Ry
     internal energy E=F+TS    =     -85.40420644 Ry

     The total energy is F=E-TS. E is the sum of the following terms:
     one-electron contribution =       6.47039467 Ry
     hartree contribution      =      10.08681975 Ry
     xc contribution           =     -21.25833878 Ry
     ewald contribution        =     -80.70308209 Ry

     convergence has been achieved in  10 iterations

     Forces acting on atoms (cartesian axes, Ry/au):

     atom    1 type  1   force =    -0.00000000   -0.00000000   -0.00000000
     atom    2 type  2   force =     0.00182108   -0.00182108   -0.00182108
     atom    3 type  2   force =    -0.00182108    0.00182108    0.00182108
     atom    4 type  2   force =     0.00002053   -0.00002053   -0.00002053
     atom    5 type  2   force =    -0.00002053    0.00002053    0.00002053
     atom    6 type  2   force =     0.00024204   -0.00024204   -0.00193467
     atom    7 type  2   force =    -0.00024204    0.00024204    0.00193467
     atom    8 type  2   force =     0.00193467   -0.00024204   -0.00024204
     atom    9 type  2   force =    -0.00193467    0.00024204    0.00024204
     atom   10 type  2   force =     0.00024204   -0.00193467   -0.00024204
     atom   11 type  2   force =    -0.00024204    0.00193467    0.00024204

     Total force =     0.006562     Total SCF correction =     0.000002


     Computing stress (Cartesian axis) and pressure

          total   stress  (Ry/bohr**3)                   (kbar)     P=     2470.79
   0.01679608   0.00007892   0.00007892         2470.79       11.61       11.61
   0.00007892   0.01679608  -0.00007892           11.61     2470.79      -11.61
   0.00007892  -0.00007892   0.01679608           11.61      -11.61     2470.79

     Energy error            =      1.4E-03 Ry
     Gradient error          =      1.9E-03 Ry/Bohr
     Cell gradient error     =      2.9E+01 kbar

     number of scf cycles    =  22
     number of bfgs steps    =  21

     enthalpy           old  =     -82.6290573356 Ry
     enthalpy           new  =     -82.6304513105 Ry

     CASE: enthalpy          _new < enthalpy          _old

     new trust radius        =       0.0296219937 bohr
     new conv_thr            =       0.0000000002 Ry

     new unit-cell volume =    162.77053 a.u.^3 (    24.12010 Ang^3 )
     density =      3.45311 g/cm^3

CELL_PARAMETERS (alat=  8.40000000)
  -0.534205355   0.035414017   0.534205355
  -0.035414017   0.534205355   0.534205355
  -0.534205355   0.534205355   0.035414017

ATOMIC_POSITIONS (crystal)
Ca              -0.0000000000        0.0000000000        0.0000000000
H                0.2789153000        0.2789153000        0.2789153000
H                0.7210847000        0.7210847000        0.7210847000
H                0.3810541901        0.3810541901        0.3810541901
H                0.6189458099        0.6189458099        0.6189458099
H                0.3563376316        0.3563376316        0.8679977634
H                0.6436623684        0.6436623684        0.1320022366
H                0.3563376316        0.8679977634        0.3563376316
H                0.6436623684        0.1320022366        0.6436623684
H                0.8679977634        0.3563376316        0.3563376316
H                0.1320022366        0.6436623684        0.6436623684



     Writing config-only to output data dir ./out/cah10.save/ :
     XML data file
     NEW-OLD atomic charge density approx. for the potential
     New effective cutoffs (rho, wfc):  640.79   80.37

     total cpu time spent up to now is     1032.4 secs

     per-process dynamical memory:    45.7 Mb

     Self-consistent Calculation

     iteration #  1     ecut=    80.00 Ry     beta= 0.30
     Davidson diagonalization with overlap
     c_bands:  1 eigenvalues not converged
     c_bands:  1 eigenvalues not converged
     c_bands:  1 eigenvalues not converged
     c_bands:  1 eigenvalues not converged
     c_bands:  1 eigenvalues not converged
     ethr =  1.00E-06,  avg # of iterations = 11.3

     total cpu time spent up to now is     1037.8 secs

     total energy              =     -85.39710939 Ry
     estimated scf accuracy    <       0.00031547 Ry

     iteration #  2     ecut=    80.00 Ry     beta= 0.30
     Davidson diagonalization with overlap
     ethr =  1.58E-06,  avg # of iterations =  1.6

     total cpu time spent up to now is     1039.3 secs

     total energy              =     -85.39707933 Ry
     estimated scf accuracy    <       0.00008442 Ry

     iteration #  3     ecut=    80.00 Ry     beta= 0.30
     Davidson diagonalization with overlap
     ethr =  4.22E-07,  avg # of iterations =  3.0

     total cpu time spent up to now is     1041.2 secs

     total energy              =     -85.39710351 Ry
     estimated scf accuracy    <       0.00000215 Ry

     iteration #  4     ecut=    80.00 Ry     beta= 0.30
     Davidson diagonalization with overlap
     ethr =  1.08E-08,  avg # of iterations =  5.8

     total cpu time spent up to now is     1044.1 secs

     total energy              =     -85.39710699 Ry
     estimated scf accuracy    <       0.00000097 Ry

     iteration #  5     ecut=    80.00 Ry     beta= 0.30
     Davidson diagonalization with overlap
     ethr =  4.85E-09,  avg # of iterations =  2.1

     total cpu time spent up to now is     1045.8 secs

     total energy              =     -85.39710710 Ry
     estimated scf accuracy    <       0.00000012 Ry

     iteration #  6     ecut=    80.00 Ry     beta= 0.30
     Davidson diagonalization with overlap
     ethr =  5.93E-10,  avg # of iterations =  5.2

     total cpu time spent up to now is     1048.3 secs

     total energy              =     -85.39710718 Ry
     estimated scf accuracy    <       0.00000003 Ry

     iteration #  7     ecut=    80.00 Ry     beta= 0.30
     Davidson diagonalization with overlap
     ethr =  1.62E-10,  avg # of iterations =  2.0

     total cpu time spent up to now is     1050.0 secs

     total energy              =     -85.39710718 Ry
     estimated scf accuracy    <          6.3E-09 Ry

     iteration #  8     ecut=    80.00 Ry     beta= 0.30
     Davidson diagonalization with overlap
     ethr =  3.17E-11,  avg # of iterations =  4.0

     total cpu time spent up to now is     1052.1 secs

     total energy              =     -85.39710718 Ry
     estimated scf accuracy    <          3.1E-10 Ry

     iteration #  9     ecut=    80.00 Ry     beta= 0.30
     Davidson diagonalization with overlap
     ethr =  1.54E-12,  avg # of iterations =  5.5

     total cpu time spent up to now is     1054.9 secs

     total energy              =     -85.39710718 Ry
     estimated scf accuracy    <          7.4E-10 Ry

     iteration # 10     ecut=    80.00 Ry     beta= 0.30
     Davidson diagonalization with overlap
     ethr =  1.54E-12,  avg # of iterations =  3.9

     total cpu time spent up to now is     1057.1 secs

     End of self-consistent calculation

     Number of k-points >= 100: set verbosity='high' to print the bands.

     the Fermi energy is    17.3905 ev

!    total energy              =     -85.39710718 Ry
     estimated scf accuracy    <          1.1E-12 Ry
     smearing contrib. (-TS)   =       0.00007838 Ry
     internal energy E=F+TS    =     -85.39718556 Ry

     The total energy is F=E-TS. E is the sum of the following terms:
     one-electron contribution =       6.62445646 Ry
     hartree contribution      =      10.03894390 Ry
     xc contribution           =     -21.26827229 Ry
     ewald contribution        =     -80.79231363 Ry

     convergence has been achieved in  10 iterations

     Forces acting on atoms (cartesian axes, Ry/au):

     atom    1 type  1   force =     0.00000000    0.00000000    0.00000000
     atom    2 type  2   force =     0.00268920   -0.00268920   -0.00268920
     atom    3 type  2   force =    -0.00268920    0.00268920    0.00268920
     atom    4 type  2   force =    -0.00266883    0.00266883    0.00266883
     atom    5 type  2   force =     0.00266883   -0.00266883   -0.00266883
     atom    6 type  2   force =    -0.00003573    0.00003573    0.00018100
     atom    7 type  2   force =     0.00003573   -0.00003573   -0.00018100
     atom    8 type  2   force =    -0.00018100    0.00003573    0.00003573
     atom    9 type  2   force =     0.00018100   -0.00003573   -0.00003573
     atom   10 type  2   force =    -0.00003573    0.00018100    0.00003573
     atom   11 type  2   force =     0.00003573   -0.00018100   -0.00003573

     Total force =     0.009292     Total SCF correction =     0.000001


     Computing stress (Cartesian axis) and pressure

          total   stress  (Ry/bohr**3)                   (kbar)     P=     2490.87
   0.01693259  -0.00002023  -0.00002023         2490.87       -2.98       -2.98
  -0.00002023   0.01693259   0.00002023           -2.98     2490.87        2.98
  -0.00002023   0.00002023   0.01693259           -2.98        2.98     2490.87

     Energy error            =      4.3E-04 Ry
     Gradient error          =      2.7E-03 Ry/Bohr
     Cell gradient error     =      9.1E+00 kbar

     number of scf cycles    =  23
     number of bfgs steps    =  22

     enthalpy           old  =     -82.6304513105 Ry
     enthalpy           new  =     -82.6308782241 Ry

     CASE: enthalpy          _new < enthalpy          _old

     new trust radius        =       0.0195800784 bohr
     new conv_thr            =       0.0000000003 Ry

     new unit-cell volume =    162.52379 a.u.^3 (    24.08354 Ang^3 )
     density =      3.45835 g/cm^3

CELL_PARAMETERS (alat=  8.40000000)
  -0.533718243   0.034988877   0.533718243
  -0.034988877   0.533718243   0.533718243
  -0.533718243   0.533718243   0.034988877

ATOMIC_POSITIONS (crystal)
Ca              -0.0000000000        0.0000000000        0.0000000000
H                0.2776961016        0.2776961016        0.2776961016
H                0.7223038984        0.7223038984        0.7223038984
H                0.3806187876        0.3806187876        0.3806187876
H                0.6193812124        0.6193812124        0.6193812124
H                0.3570178994        0.3570178994        0.8671922524
H                0.6429821006        0.6429821006        0.1328077476
H                0.3570178994        0.8671922524        0.3570178994
H                0.6429821006        0.1328077476        0.6429821006
H                0.8671922524        0.3570178994        0.3570178994
H                0.1328077476        0.6429821006        0.6429821006



     Writing config-only to output data dir ./out/cah10.save/ :
     XML data file
     NEW-OLD atomic charge density approx. for the potential
     New effective cutoffs (rho, wfc):  640.95   80.39

     total cpu time spent up to now is     1058.0 secs

     per-process dynamical memory:    45.7 Mb

     Self-consistent Calculation

     iteration #  1     ecut=    80.00 Ry     beta= 0.30
     Davidson diagonalization with overlap
     ethr =  1.00E-06,  avg # of iterations =  4.9

     total cpu time spent up to now is     1060.6 secs

     total energy              =     -85.39300619 Ry
     estimated scf accuracy    <       0.00002512 Ry

     iteration #  2     ecut=    80.00 Ry     beta= 0.30
     Davidson diagonalization with overlap
     ethr =  1.26E-07,  avg # of iterations =  2.5

     total cpu time spent up to now is     1062.3 secs

     total energy              =     -85.39300746 Ry
     estimated scf accuracy    <       0.00001153 Ry

     iteration #  3     ecut=    80.00 Ry     beta= 0.30
     Davidson diagonalization with overlap
     ethr =  5.77E-08,  avg # of iterations =  2.1

     total cpu time spent up to now is     1064.0 secs

     total energy              =     -85.39300865 Ry
     estimated scf accuracy    <       0.00000036 Ry

     iteration #  4     ecut=    80.00 Ry     beta= 0.30
     Davidson diagonalization with overlap
     ethr =  1.79E-09,  avg # of iterations =  5.3

     total cpu time spent up to now is     1066.6 secs

     total energy              =     -85.39300913 Ry
     estimated scf accuracy    <       0.00000010 Ry

     iteration #  5     ecut=    80.00 Ry     beta= 0.30
     Davidson diagonalization with overlap
     ethr =  4.92E-10,  avg # of iterations =  2.9

     total cpu time spent up to now is     1068.5 secs

     total energy              =     -85.39300913 Ry
     estimated scf accuracy    <       0.00000003 Ry

     iteration #  6     ecut=    80.00 Ry     beta= 0.30
     Davidson diagonalization with overlap
     ethr =  1.54E-10,  avg # of iterations =  3.1

     total cpu time spent up to now is     1070.4 secs

     total energy              =     -85.39300914 Ry
     estimated scf accuracy    <          9.6E-09 Ry

     iteration #  7     ecut=    80.00 Ry     beta= 0.30
     Davidson diagonalization with overlap
     ethr =  4.78E-11,  avg # of iterations =  2.5

     total cpu time spent up to now is     1072.1 secs

     total energy              =     -85.39300914 Ry
     estimated scf accuracy    <          3.7E-10 Ry

     iteration #  8     ecut=    80.00 Ry     beta= 0.30
     Davidson diagonalization with overlap
     ethr =  1.84E-12,  avg # of iterations =  6.1

     total cpu time spent up to now is     1075.1 secs

     total energy              =     -85.39300914 Ry
     estimated scf accuracy    <          4.0E-10 Ry

     iteration #  9     ecut=    80.00 Ry     beta= 0.30
     Davidson diagonalization with overlap
     ethr =  1.84E-12,  avg # of iterations =  2.0

     total cpu time spent up to now is     1076.7 secs

     End of self-consistent calculation

     Number of k-points >= 100: set verbosity='high' to print the bands.

     the Fermi energy is    17.4085 ev

!    total energy              =     -85.39300914 Ry
     estimated scf accuracy    <          5.4E-11 Ry
     smearing contrib. (-TS)   =       0.00007794 Ry
     internal energy E=F+TS    =     -85.39308709 Ry

     The total energy is F=E-TS. E is the sum of the following terms:
     one-electron contribution =       6.70186835 Ry
     hartree contribution      =      10.02001665 Ry
     xc contribution           =     -21.27258415 Ry
     ewald contribution        =     -80.84238794 Ry

     convergence has been achieved in   9 iterations

     Forces acting on atoms (cartesian axes, Ry/au):

     atom    1 type  1   force =     0.00000000    0.00000000    0.00000000
     atom    2 type  2   force =     0.00155407   -0.00155407   -0.00155407
     atom    3 type  2   force =    -0.00155407    0.00155407    0.00155407
     atom    4 type  2   force =    -0.00203825    0.00203825    0.00203825
     atom    5 type  2   force =     0.00203825   -0.00203825   -0.00203825
     atom    6 type  2   force =    -0.00019340    0.00019340    0.00022100
     atom    7 type  2   force =     0.00019340   -0.00019340   -0.00022100
     atom    8 type  2   force =    -0.00022100    0.00019340    0.00019340
     atom    9 type  2   force =     0.00022100   -0.00019340   -0.00019340
     atom   10 type  2   force =    -0.00019340    0.00022100    0.00019340
     atom   11 type  2   force =     0.00019340   -0.00022100   -0.00019340

     Total force =     0.006337     Total SCF correction =     0.000005


     Computing stress (Cartesian axis) and pressure

          total   stress  (Ry/bohr**3)                   (kbar)     P=     2500.67
   0.01699919  -0.00000749  -0.00000749         2500.67       -1.10       -1.10
  -0.00000749   0.01699919   0.00000749           -1.10     2500.67        1.10
  -0.00000749   0.00000749   0.01699919           -1.10        1.10     2500.67

     Energy error            =      9.5E-05 Ry
     Gradient error          =      2.0E-03 Ry/Bohr
     Cell gradient error     =      1.1E+00 kbar

     number of scf cycles    =  24
     number of bfgs steps    =  23

     enthalpy           old  =     -82.6308782241 Ry
     enthalpy           new  =     -82.6309734947 Ry

     CASE: enthalpy          _new < enthalpy          _old

     new trust radius        =       0.0148865418 bohr
     new conv_thr            =       0.0000000002 Ry

     new unit-cell volume =    162.34773 a.u.^3 (    24.05745 Ang^3 )
     density =      3.46210 g/cm^3

CELL_PARAMETERS (alat=  8.40000000)
  -0.533191533   0.034349156   0.533191533
  -0.034349156   0.533191533   0.533191533
  -0.533191533   0.533191533   0.034349156

ATOMIC_POSITIONS (crystal)
Ca              -0.0000000000        0.0000000000        0.0000000000
H                0.2767679804        0.2767679804        0.2767679804
H                0.7232320196        0.7232320196        0.7232320196
H                0.3806272923        0.3806272923        0.3806272923
H                0.6193727077        0.6193727077        0.6193727077
H                0.3576750201        0.3576750201        0.8668517168
H                0.6423249799        0.6423249799        0.1331482832
H                0.3576750201        0.8668517168        0.3576750201
H                0.6423249799        0.1331482832        0.6423249799
H                0.8668517168        0.3576750201        0.3576750201
H                0.1331482832        0.6423249799        0.6423249799



     Writing config-only to output data dir ./out/cah10.save/ :
     XML data file
     NEW-OLD atomic charge density approx. for the potential
     New effective cutoffs (rho, wfc):  640.66   80.36

     total cpu time spent up to now is     1077.6 secs

     per-process dynamical memory:    45.7 Mb

     Self-consistent Calculation

     iteration #  1     ecut=    80.00 Ry     beta= 0.30
     Davidson diagonalization with overlap
     ethr =  1.00E-06,  avg # of iterations =  3.9

     total cpu time spent up to now is     1080.0 secs

     total energy              =     -85.39006547 Ry
     estimated scf accuracy    <       0.00003068 Ry

     iteration #  2     ecut=    80.00 Ry     beta= 0.30
     Davidson diagonalization with overlap
     ethr =  1.53E-07,  avg # of iterations =  3.7

     total cpu time spent up to now is     1082.0 secs

     total energy              =     -85.39006868 Ry
     estimated scf accuracy    <       0.00001516 Ry

     iteration #  3     ecut=    80.00 Ry     beta= 0.30
     Davidson diagonalization with overlap
     ethr =  7.58E-08,  avg # of iterations =  2.2

     total cpu time spent up to now is     1083.7 secs

     total energy              =     -85.39007014 Ry
     estimated scf accuracy    <       0.00000053 Ry

     iteration #  4     ecut=    80.00 Ry     beta= 0.30
     Davidson diagonalization with overlap
     ethr =  2.63E-09,  avg # of iterations =  4.9

     total cpu time spent up to now is     1086.1 secs

     total energy              =     -85.39007056 Ry
     estimated scf accuracy    <       0.00000021 Ry

     iteration #  5     ecut=    80.00 Ry     beta= 0.30
     Davidson diagonalization with overlap
     ethr =  1.06E-09,  avg # of iterations =  3.3

     total cpu time spent up to now is     1088.1 secs

     total energy              =     -85.39007059 Ry
     estimated scf accuracy    <       0.00000010 Ry

     iteration #  6     ecut=    80.00 Ry     beta= 0.30
     Davidson diagonalization with overlap
     ethr =  4.90E-10,  avg # of iterations =  2.4

     total cpu time spent up to now is     1089.9 secs

     total energy              =     -85.39007062 Ry
     estimated scf accuracy    <          5.0E-09 Ry

     iteration #  7     ecut=    80.00 Ry     beta= 0.30
     Davidson diagonalization with overlap
     ethr =  2.49E-11,  avg # of iterations =  5.1

     total cpu time spent up to now is     1092.4 secs

     total energy              =     -85.39007062 Ry
     estimated scf accuracy    <          2.1E-09 Ry

     iteration #  8     ecut=    80.00 Ry     beta= 0.30
     Davidson diagonalization with overlap
     ethr =  1.05E-11,  avg # of iterations =  2.0

     total cpu time spent up to now is     1094.1 secs

     total energy              =     -85.39007062 Ry
     estimated scf accuracy    <          2.4E-10 Ry

     iteration #  9     ecut=    80.00 Ry     beta= 0.30
     Davidson diagonalization with overlap
     c_bands:  1 eigenvalues not converged
     ethr =  1.22E-12,  avg # of iterations =  5.4

     total cpu time spent up to now is     1096.7 secs

     End of self-consistent calculation

     Number of k-points >= 100: set verbosity='high' to print the bands.

     the Fermi energy is    17.4137 ev

!    total energy              =     -85.39007062 Ry
     estimated scf accuracy    <          7.3E-11 Ry
     smearing contrib. (-TS)   =       0.00006754 Ry
     internal energy E=F+TS    =     -85.39013816 Ry

     The total energy is F=E-TS. E is the sum of the following terms:
     one-electron contribution =       6.76503308 Ry
     hartree contribution      =      10.00328389 Ry
     xc contribution           =     -21.27451716 Ry
     ewald contribution        =     -80.88393797 Ry

     convergence has been achieved in   9 iterations

     Forces acting on atoms (cartesian axes, Ry/au):

     atom    1 type  1   force =     0.00000000    0.00000000    0.00000000
     atom    2 type  2   force =     0.00036255   -0.00036255   -0.00036255
     atom    3 type  2   force =    -0.00036255    0.00036255    0.00036255
     atom    4 type  2   force =    -0.00080403    0.00080403    0.00080403
     atom    5 type  2   force =     0.00080403   -0.00080403   -0.00080403
     atom    6 type  2   force =    -0.00003601    0.00003601    0.00020016
     atom    7 type  2   force =     0.00003601   -0.00003601   -0.00020016
     atom    8 type  2   force =    -0.00020016    0.00003601    0.00003601
     atom    9 type  2   force =     0.00020016   -0.00003601   -0.00003601
     atom   10 type  2   force =    -0.00003601    0.00020016    0.00003601
     atom   11 type  2   force =     0.00003601   -0.00020016   -0.00003601

     Total force =     0.002219     Total SCF correction =     0.000003


     Computing stress (Cartesian axis) and pressure

          total   stress  (Ry/bohr**3)                   (kbar)     P=     2506.19
   0.01703674   0.00000179   0.00000179         2506.19        0.26        0.26
   0.00000179   0.01703674  -0.00000179            0.26     2506.19       -0.26
   0.00000179  -0.00000179   0.01703674            0.26       -0.26     2506.19

     Energy error            =      5.4E-05 Ry
     Gradient error          =      8.0E-04 Ry/Bohr
     Cell gradient error     =      6.2E+00 kbar

     number of scf cycles    =  25
     number of bfgs steps    =  24

     enthalpy           old  =     -82.6309734947 Ry
     enthalpy           new  =     -82.6310270369 Ry

     CASE: enthalpy          _new < enthalpy          _old

     new trust radius        =       0.0033869498 bohr
     new conv_thr            =            8.0E-11 Ry

     new unit-cell volume =    162.39023 a.u.^3 (    24.06375 Ang^3 )
     density =      3.46119 g/cm^3

CELL_PARAMETERS (alat=  8.40000000)
  -0.533059751   0.034017024   0.533059751
  -0.034017024   0.533059751   0.533059751
  -0.533059751   0.533059751   0.034017024

ATOMIC_POSITIONS (crystal)
Ca              -0.0000000000        0.0000000000        0.0000000000
H                0.2765564917        0.2765564917        0.2765564917
H                0.7234435083        0.7234435083        0.7234435083
H                0.3807574530        0.3807574530        0.3807574530
H                0.6192425470        0.6192425470        0.6192425470
H                0.3579185715        0.3579185715        0.8667724408
H                0.6420814285        0.6420814285        0.1332275592
H                0.3579185715        0.8667724408        0.3579185715
H                0.6420814285        0.1332275592        0.6420814285
H                0.8667724408        0.3579185715        0.3579185715
H                0.1332275592        0.6420814285        0.6420814285



     Writing config-only to output data dir ./out/cah10.save/ :
     XML data file
     NEW-OLD atomic charge density approx. for the potential
     New effective cutoffs (rho, wfc):  640.15   80.29

     total cpu time spent up to now is     1097.5 secs

     per-process dynamical memory:    45.7 Mb

     Self-consistent Calculation

     iteration #  1     ecut=    80.00 Ry     beta= 0.30
     Davidson diagonalization with overlap
     ethr =  1.00E-06,  avg # of iterations =  2.2

     Threshold (ethr) on eigenvalues was too large:
     Diagonalizing with lowered threshold

     Davidson diagonalization with overlap
     ethr =  1.78E-08,  avg # of iterations =  4.6

     total cpu time spent up to now is     1102.0 secs

     total energy              =     -85.39080298 Ry
     estimated scf accuracy    <       0.00000488 Ry

     iteration #  2     ecut=    80.00 Ry     beta= 0.30
     Davidson diagonalization with overlap
     ethr =  2.44E-08,  avg # of iterations =  1.0

     total cpu time spent up to now is     1103.4 secs

     total energy              =     -85.39080245 Ry
     estimated scf accuracy    <       0.00000209 Ry

     iteration #  3     ecut=    80.00 Ry     beta= 0.30
     Davidson diagonalization with overlap
     ethr =  1.04E-08,  avg # of iterations =  1.9

     total cpu time spent up to now is     1105.0 secs

     total energy              =     -85.39080258 Ry
     estimated scf accuracy    <       0.00000007 Ry

     iteration #  4     ecut=    80.00 Ry     beta= 0.30
     Davidson diagonalization with overlap
     ethr =  3.39E-10,  avg # of iterations =  4.9

     total cpu time spent up to now is     1107.3 secs

     total energy              =     -85.39080262 Ry
     estimated scf accuracy    <          3.0E-09 Ry

     iteration #  5     ecut=    80.00 Ry     beta= 0.30
     Davidson diagonalization with overlap
     c_bands:  1 eigenvalues not converged
     ethr =  1.51E-11,  avg # of iterations =  4.6

     total cpu time spent up to now is     1109.6 secs

     total energy              =     -85.39080262 Ry
     estimated scf accuracy    <          4.9E-10 Ry

     iteration #  6     ecut=    80.00 Ry     beta= 0.30
     Davidson diagonalization with overlap
     ethr =  2.45E-12,  avg # of iterations =  3.9

     total cpu time spent up to now is     1111.8 secs

     total energy              =     -85.39080262 Ry
     estimated scf accuracy    <          8.7E-11 Ry

     iteration #  7     ecut=    80.00 Ry     beta= 0.30
     Davidson diagonalization with overlap
     ethr =  4.37E-13,  avg # of iterations =  3.6

     total cpu time spent up to now is     1113.9 secs

     End of self-consistent calculation

     Number of k-points >= 100: set verbosity='high' to print the bands.

     the Fermi energy is    17.4034 ev

!    total energy              =     -85.39080262 Ry
     estimated scf accuracy    <          2.1E-11 Ry
     smearing contrib. (-TS)   =       0.00005992 Ry
     internal energy E=F+TS    =     -85.39086254 Ry

     The total energy is F=E-TS. E is the sum of the following terms:
     one-electron contribution =       6.76156909 Ry
     hartree contribution      =      10.00200511 Ry
     xc contribution           =     -21.27294150 Ry
     ewald contribution        =     -80.88149524 Ry

     convergence has been achieved in   7 iterations

     Forces acting on atoms (cartesian axes, Ry/au):

     atom    1 type  1   force =    -0.00000000   -0.00000000   -0.00000000
     atom    2 type  2   force =     0.00002301   -0.00002301   -0.00002301
     atom    3 type  2   force =    -0.00002301    0.00002301    0.00002301
     atom    4 type  2   force =    -0.00017554    0.00017554    0.00017554
     atom    5 type  2   force =     0.00017554   -0.00017554   -0.00017554
     atom    6 type  2   force =    -0.00001854    0.00001854    0.00007148
     atom    7 type  2   force =     0.00001854   -0.00001854   -0.00007148
     atom    8 type  2   force =    -0.00007148    0.00001854    0.00001854
     atom    9 type  2   force =     0.00007148   -0.00001854   -0.00001854
     atom   10 type  2   force =    -0.00001854    0.00007148    0.00001854
     atom   11 type  2   force =     0.00001854   -0.00007148   -0.00001854

     Total force =     0.000472     Total SCF correction =     0.000002


     Computing stress (Cartesian axis) and pressure

          total   stress  (Ry/bohr**3)                   (kbar)     P=     2503.28
   0.01701695   0.00000156   0.00000156         2503.28        0.23        0.23
   0.00000156   0.01701695  -0.00000156            0.23     2503.28       -0.23
   0.00000156  -0.00000156   0.01701695            0.23       -0.23     2503.28

     Energy error            =      9.7E-06 Ry
     Gradient error          =      1.8E-04 Ry/Bohr
     Cell gradient error     =      3.3E+00 kbar

     number of scf cycles    =  26
     number of bfgs steps    =  25

     enthalpy           old  =     -82.6310270369 Ry
     enthalpy           new  =     -82.6310367170 Ry

     CASE: enthalpy          _new < enthalpy          _old

     new trust radius        =       0.0011132000 bohr
     new conv_thr            =            1.8E-11 Ry

     new unit-cell volume =    162.44621 a.u.^3 (    24.07204 Ang^3 )
     density =      3.46000 g/cm^3

CELL_PARAMETERS (alat=  8.40000000)
  -0.533063486   0.033912810   0.533063486
  -0.033912810   0.533063486   0.533063486
  -0.533063486   0.533063486   0.033912810

ATOMIC_POSITIONS (crystal)
Ca              -0.0000000000        0.0000000000        0.0000000000
H                0.2765528524        0.2765528524        0.2765528524
H                0.7234471476        0.7234471476        0.7234471476
H                0.3808270013        0.3808270013        0.3808270013
H                0.6191729987        0.6191729987        0.6191729987
H                0.3579726647        0.3579726647        0.8667831940
H                0.6420273353        0.6420273353        0.1332168060
H                0.3579726647        0.8667831940        0.3579726647
H                0.6420273353        0.1332168060        0.6420273353
H                0.8667831940        0.3579726647        0.3579726647
H                0.1332168060        0.6420273353        0.6420273353



     Writing config-only to output data dir ./out/cah10.save/ :
     XML data file
     NEW-OLD atomic charge density approx. for the potential
     New effective cutoffs (rho, wfc):  639.87   80.26

     total cpu time spent up to now is     1114.8 secs

     per-process dynamical memory:    45.7 Mb

     Self-consistent Calculation

     iteration #  1     ecut=    80.00 Ry     beta= 0.30
     Davidson diagonalization with overlap
     ethr =  1.00E-06,  avg # of iterations =  2.0

     Threshold (ethr) on eigenvalues was too large:
     Diagonalizing with lowered threshold

     Davidson diagonalization with overlap
     ethr =  9.37E-10,  avg # of iterations =  5.8

     total cpu time spent up to now is     1119.8 secs

     total energy              =     -85.39175521 Ry
     estimated scf accuracy    <       0.00000031 Ry

     iteration #  2     ecut=    80.00 Ry     beta= 0.30
     Davidson diagonalization with overlap
     ethr =  1.53E-09,  avg # of iterations =  1.0

     total cpu time spent up to now is     1121.3 secs

     total energy              =     -85.39175518 Ry
     estimated scf accuracy    <       0.00000013 Ry

     iteration #  3     ecut=    80.00 Ry     beta= 0.30
     Davidson diagonalization with overlap
     ethr =  6.54E-10,  avg # of iterations =  2.0

     total cpu time spent up to now is     1122.9 secs

     total energy              =     -85.39175518 Ry
     estimated scf accuracy    <          4.5E-09 Ry

     iteration #  4     ecut=    80.00 Ry     beta= 0.30
     Davidson diagonalization with overlap
     ethr =  2.26E-11,  avg # of iterations =  4.8

     total cpu time spent up to now is     1125.2 secs

     total energy              =     -85.39175519 Ry
     estimated scf accuracy    <          3.0E-10 Ry

     iteration #  5     ecut=    80.00 Ry     beta= 0.30
     Davidson diagonalization with overlap
     ethr =  1.52E-12,  avg # of iterations =  4.7

     total cpu time spent up to now is     1127.6 secs

     total energy              =     -85.39175519 Ry
     estimated scf accuracy    <          1.9E-10 Ry

     iteration #  6     ecut=    80.00 Ry     beta= 0.30
     Davidson diagonalization with overlap
     ethr =  9.32E-13,  avg # of iterations =  3.1

     total cpu time spent up to now is     1129.6 secs

     total energy              =     -85.39175519 Ry
     estimated scf accuracy    <          6.7E-11 Ry

     iteration #  7     ecut=    80.00 Ry     beta= 0.30
     Davidson diagonalization with overlap
     ethr =  3.37E-13,  avg # of iterations =  2.0

     total cpu time spent up to now is     1131.3 secs

     End of self-consistent calculation

     Number of k-points >= 100: set verbosity='high' to print the bands.

     the Fermi energy is    17.3956 ev

!    total energy              =     -85.39175519 Ry
     estimated scf accuracy    <          6.4E-12 Ry
     smearing contrib. (-TS)   =       0.00005752 Ry
     internal energy E=F+TS    =     -85.39181271 Ry

     The total energy is F=E-TS. E is the sum of the following terms:
     one-electron contribution =       6.74922091 Ry
     hartree contribution      =      10.00384616 Ry
     xc contribution           =     -21.27157798 Ry
     ewald contribution        =     -80.87330179 Ry

     convergence has been achieved in   7 iterations

     Forces acting on atoms (cartesian axes, Ry/au):

     atom    1 type  1   force =    -0.00000000   -0.00000000   -0.00000000
     atom    2 type  2   force =    -0.00002524    0.00002524    0.00002524
     atom    3 type  2   force =     0.00002524   -0.00002524   -0.00002524
     atom    4 type  2   force =     0.00001375   -0.00001375   -0.00001375
     atom    5 type  2   force =    -0.00001375    0.00001375    0.00001375
     atom    6 type  2   force =    -0.00000260    0.00000260    0.00001185
     atom    7 type  2   force =     0.00000260   -0.00000260   -0.00001185
     atom    8 type  2   force =    -0.00001185    0.00000260    0.00000260
     atom    9 type  2   force =     0.00001185   -0.00000260   -0.00000260
     atom   10 type  2   force =    -0.00000260    0.00001185    0.00000260
     atom   11 type  2   force =     0.00000260   -0.00001185   -0.00000260

     Total force =     0.000077     Total SCF correction =     0.000001


     Computing stress (Cartesian axis) and pressure

          total   stress  (Ry/bohr**3)                   (kbar)     P=     2500.48
   0.01699789   0.00000040   0.00000040         2500.48        0.06        0.06
   0.00000040   0.01699789  -0.00000040            0.06     2500.48       -0.06
   0.00000040  -0.00000040   0.01699789            0.06       -0.06     2500.48

     Energy error            =      1.3E-06 Ry
     Gradient error          =      2.5E-05 Ry/Bohr
     Cell gradient error     =      4.8E-01 kbar

     number of scf cycles    =  27
     number of bfgs steps    =  26

     enthalpy           old  =     -82.6310367170 Ry
     enthalpy           new  =     -82.6310379992 Ry

     CASE: enthalpy          _new < enthalpy          _old

     new trust radius        =       0.0002068834 bohr
     new conv_thr            =            1.0E-11 Ry

     new unit-cell volume =    162.45614 a.u.^3 (    24.07352 Ang^3 )
     density =      3.45979 g/cm^3

CELL_PARAMETERS (alat=  8.40000000)
  -0.533069962   0.033905252   0.533069962
  -0.033905252   0.533069962   0.533069962
  -0.533069962   0.533069962   0.033905252

ATOMIC_POSITIONS (crystal)
Ca              -0.0000000000        0.0000000000        0.0000000000
H                0.2765657788        0.2765657788        0.2765657788
H                0.7234342212        0.7234342212        0.7234342212
H                0.3808313214        0.3808313214        0.3808313214
H                0.6191686786        0.6191686786        0.6191686786
H                0.3579712762        0.3579712762        0.8667871760
H                0.6420287238        0.6420287238        0.1332128240
H                0.3579712762        0.8667871760        0.3579712762
H                0.6420287238        0.1332128240        0.6420287238
H                0.8667871760        0.3579712762        0.3579712762
H                0.1332128240        0.6420287238        0.6420287238



     Writing config-only to output data dir ./out/cah10.save/ :
     XML data file
     NEW-OLD atomic charge density approx. for the potential
     New effective cutoffs (rho, wfc):  639.84   80.25

     total cpu time spent up to now is     1132.1 secs

     per-process dynamical memory:    45.7 Mb

     Self-consistent Calculation

     iteration #  1     ecut=    80.00 Ry     beta= 0.30
     Davidson diagonalization with overlap
     ethr =  1.00E-06,  avg # of iterations =  2.0

     Threshold (ethr) on eigenvalues was too large:
     Diagonalizing with lowered threshold

     Davidson diagonalization with overlap
     ethr =  7.46E-12,  avg # of iterations =  6.5

     total cpu time spent up to now is     1137.2 secs

     total energy              =     -85.39192400 Ry
     estimated scf accuracy    <          2.2E-09 Ry

     iteration #  2     ecut=    80.00 Ry     beta= 0.30
     Davidson diagonalization with overlap
     ethr =  1.12E-11,  avg # of iterations =  1.0

     total cpu time spent up to now is     1138.7 secs

     total energy              =     -85.39192400 Ry
     estimated scf accuracy    <          1.0E-09 Ry

     iteration #  3     ecut=    80.00 Ry     beta= 0.30
     Davidson diagonalization with overlap
     ethr =  4.98E-12,  avg # of iterations =  1.8

     total cpu time spent up to now is     1140.2 secs

     total energy              =     -85.39192400 Ry
     estimated scf accuracy    <          2.7E-11 Ry

     iteration #  4     ecut=    80.00 Ry     beta= 0.30
     Davidson diagonalization with overlap
     ethr =  1.36E-13,  avg # of iterations =  4.8

     total cpu time spent up to now is     1142.7 secs

     End of self-consistent calculation

     Number of k-points >= 100: set verbosity='high' to print the bands.

     the Fermi energy is    17.3945 ev

!    total energy              =     -85.39192400 Ry
     estimated scf accuracy    <          5.7E-12 Ry
     smearing contrib. (-TS)   =       0.00005748 Ry
     internal energy E=F+TS    =     -85.39198148 Ry

     The total energy is F=E-TS. E is the sum of the following terms:
     one-electron contribution =       6.74661465 Ry
     hartree contribution      =      10.00435027 Ry
     xc contribution           =     -21.27138124 Ry
     ewald contribution        =     -80.87156517 Ry

     convergence has been achieved in   4 iterations

     Forces acting on atoms (cartesian axes, Ry/au):

     atom    1 type  1   force =     0.00000000    0.00000000    0.00000000
     atom    2 type  2   force =    -0.00000560    0.00000560    0.00000560
     atom    3 type  2   force =     0.00000560   -0.00000560   -0.00000560
     atom    4 type  2   force =     0.00000620   -0.00000620   -0.00000620
     atom    5 type  2   force =    -0.00000620    0.00000620    0.00000620
     atom    6 type  2   force =    -0.00000150    0.00000150    0.00000310
     atom    7 type  2   force =     0.00000150   -0.00000150   -0.00000310
     atom    8 type  2   force =    -0.00000310    0.00000150    0.00000150
     atom    9 type  2   force =     0.00000310   -0.00000150   -0.00000150
     atom   10 type  2   force =    -0.00000150    0.00000310    0.00000150
     atom   11 type  2   force =     0.00000150   -0.00000310   -0.00000150

     Total force =     0.000022     Total SCF correction =     0.000001


     Computing stress (Cartesian axis) and pressure

          total   stress  (Ry/bohr**3)                   (kbar)     P=     2500.04
   0.01699492  -0.00000007  -0.00000007         2500.04       -0.01       -0.01
  -0.00000007   0.01699492   0.00000007           -0.01     2500.04        0.01
  -0.00000007   0.00000007   0.01699492           -0.01        0.01     2500.04

     Energy error            =      2.7E-08 Ry
     Gradient error          =      6.2E-06 Ry/Bohr
     Cell gradient error     =      3.9E-02 kbar

     bfgs converged in  28 scf cycles and  27 bfgs steps
     (criteria: energy <  1.0E-06 Ry, force <  1.0E-04 Ry/Bohr, cell <  5.0E-01 kbar)

     End of BFGS Geometry Optimization

     Final enthalpy           =     -82.6310380261 Ry

     File ./out/cah10.bfgs deleted, as requested
Begin final coordinates
     new unit-cell volume =    162.45614 a.u.^3 (    24.07352 Ang^3 )
     density =      3.45979 g/cm^3

CELL_PARAMETERS (alat=  8.40000000)
  -0.533069962   0.033905252   0.533069962
  -0.033905252   0.533069962   0.533069962
  -0.533069962   0.533069962   0.033905252

ATOMIC_POSITIONS (crystal)
Ca              -0.0000000000        0.0000000000        0.0000000000
H                0.2765657788        0.2765657788        0.2765657788
H                0.7234342212        0.7234342212        0.7234342212
H                0.3808313214        0.3808313214        0.3808313214
H                0.6191686786        0.6191686786        0.6191686786
H                0.3579712762        0.3579712762        0.8667871760
H                0.6420287238        0.6420287238        0.1332128240
H                0.3579712762        0.8667871760        0.3579712762
H                0.6420287238        0.1332128240        0.6420287238
H                0.8667871760        0.3579712762        0.3579712762
H                0.1332128240        0.6420287238        0.6420287238
End final coordinates



     Writing config-only to output data dir ./out/cah10.save/ :
     XML data file

     Final scf calculation at the relaxed structure.
     The G-vectors are recalculated for the final unit cell
     Results may differ from those at the preceding step.

     Parallelization info
     --------------------
     sticks:   dense  smooth     PW     G-vecs:    dense   smooth      PW
     Min         169      83     25                 4442     1569     266
     Max         170      85     26                 4444     1571     268
     Sum        1695     839    257                44431    15697    2669

     Using Slab Decomposition



     bravais-lattice index     =            2
     lattice parameter (alat)  =       8.4000  a.u.
     unit-cell volume          =     162.4561 (a.u.)^3
     number of atoms/cell      =           11
     number of atomic types    =            2
     number of electrons       =        20.00
     number of Kohn-Sham states=           14
     kinetic-energy cutoff     =      80.0000  Ry
     charge density cutoff     =     640.0000  Ry
     scf convergence threshold =      1.0E-11
     mixing beta               =       0.3000
     number of iterations used =            8  plain     mixing
     press convergence thresh. =      5.0E-01
     Exchange-correlation= PBE
                           (   1   4   3   4   0   0   0)

     celldm(1)=   8.400000  celldm(2)=   0.000000  celldm(3)=   0.000000
     celldm(4)=   0.000000  celldm(5)=   0.000000  celldm(6)=   0.000000

     crystal axes: (cart. coord. in units of alat)
               a(1) = (  -0.533070   0.033905   0.533070 )  
               a(2) = (  -0.033905   0.533070   0.533070 )  
               a(3) = (  -0.533070   0.533070   0.033905 )  

     reciprocal axes: (cart. coord. in units 2 pi/alat)
               b(1) = ( -0.970800 -1.032547  0.970800 )  
               b(2) = (  1.032547  0.970800  0.970800 )  
               b(3) = ( -0.970800  0.970800 -1.032547 )  


     PseudoPot. # 1 for Ca read from file:
     ./pseudo/Ca.pbe-spn-rrkjus_psl.1.0.0.UPF
     MD5 check sum: be476cbee6758b394af5fd17922f3fca
     Pseudo is Ultrasoft + core correction, Zval = 10.0
     Generated using &quot;atomic&quot; code by A. Dal Corso  v.6.2.2
     Using radial grid of 1169 points,  6 beta functions with: 
                l(1) =   0
                l(2) =   0
                l(3) =   1
                l(4) =   1
                l(5) =   2
                l(6) =   2
     Q(r) pseudized with 0 coefficients 


     PseudoPot. # 2 for H  read from file:
     ./pseudo/H.pbe-rrkjus_psl.1.0.0.UPF
     MD5 check sum: 3f4114867bd07edc7f1424d066fc1888
     Pseudo is Ultrasoft, Zval =  1.0
     Generated using &quot;atomic&quot; code by A. Dal Corso  v.6.3MaX
     Using radial grid of  929 points,  2 beta functions with: 
                l(1) =   0
                l(2) =   0
     Q(r) pseudized with 0 coefficients 


     atomic species   valence    mass     pseudopotential
     Ca               10.00    40.07800     Ca( 1.00)
     H                 1.00     1.00800     H ( 1.00)

     12 Sym. Ops., with inversion, found



   Cartesian axes

     site n.     atom                  positions (alat units)
         1        Ca     tau(   1) = (   0.0000000   0.0000000  -0.0000000  )
         2        H      tau(   2) = (  -0.3042349   0.3042349   0.3042349  )
         3        H      tau(   3) = (  -0.7958103   0.7958103   0.7958103  )
         4        H      tau(   4) = (  -0.4189317   0.4189317   0.4189317  )
         5        H      tau(   5) = (  -0.6811135   0.6811135   0.6811135  )
         6        H      tau(   6) = (  -0.6650190   0.6650190   0.4110361  )
         7        H      tau(   7) = (  -0.4350261   0.4350261   0.6890091  )
         8        H      tau(   8) = (  -0.4110361   0.6650190   0.6650190  )
         9        H      tau(   9) = (  -0.6890091   0.4350261   0.4350261  )
        10        H      tau(  10) = (  -0.6650190   0.4110361   0.6650190  )
        11        H      tau(  11) = (  -0.4350261   0.6890091   0.4350261  )

     number of k points=   189  Methfessel-Paxton smearing, width (Ry)=  0.0200

     Number of k-points >= 100: set verbosity='high' to print them.

     Dense  grid:    44431 G-vectors     FFT dimensions: (  54,  54,  54)

     Smooth grid:    15697 G-vectors     FFT dimensions: (  40,  40,  40)

     Estimated max dynamical RAM per process >      34.00 MB

     Estimated total dynamical RAM >     339.96 MB

     Initial potential from superposition of free atoms

     starting charge      19.9950, renormalised to      20.0000
     Starting wfcs are   18 randomized atomic wfcs

     total cpu time spent up to now is     1144.7 secs

     per-process dynamical memory:    45.7 Mb

     Self-consistent Calculation

     iteration #  1     ecut=    80.00 Ry     beta= 0.30
     Davidson diagonalization with overlap
     c_bands:  1 eigenvalues not converged
     c_bands:  2 eigenvalues not converged
     c_bands:  2 eigenvalues not converged
     c_bands:  2 eigenvalues not converged
     c_bands:  3 eigenvalues not converged
     c_bands:  1 eigenvalues not converged
     c_bands:  1 eigenvalues not converged
     c_bands:  1 eigenvalues not converged
     c_bands:  2 eigenvalues not converged
     c_bands:  2 eigenvalues not converged
     c_bands:  2 eigenvalues not converged
     c_bands:  2 eigenvalues not converged
     c_bands:  2 eigenvalues not converged
     c_bands:  3 eigenvalues not converged
     c_bands:  2 eigenvalues not converged
     c_bands:  2 eigenvalues not converged
     c_bands:  2 eigenvalues not converged
     c_bands:  1 eigenvalues not converged
     c_bands:  3 eigenvalues not converged
     c_bands:  2 eigenvalues not converged
     c_bands:  2 eigenvalues not converged
     c_bands:  2 eigenvalues not converged
     c_bands:  2 eigenvalues not converged
     c_bands:  3 eigenvalues not converged
     c_bands:  3 eigenvalues not converged
     c_bands:  3 eigenvalues not converged
     c_bands:  3 eigenvalues not converged
     c_bands:  4 eigenvalues not converged
     c_bands:  3 eigenvalues not converged
     c_bands:  3 eigenvalues not converged
     c_bands:  3 eigenvalues not converged
     c_bands:  3 eigenvalues not converged
     c_bands:  3 eigenvalues not converged
     c_bands:  4 eigenvalues not converged
     c_bands:  4 eigenvalues not converged
     c_bands:  3 eigenvalues not converged
     c_bands:  3 eigenvalues not converged
     c_bands:  3 eigenvalues not converged
     c_bands:  4 eigenvalues not converged
     c_bands:  4 eigenvalues not converged
     c_bands:  4 eigenvalues not converged
     c_bands:  5 eigenvalues not converged
     c_bands:  3 eigenvalues not converged
     c_bands:  2 eigenvalues not converged
     c_bands:  2 eigenvalues not converged
     c_bands:  2 eigenvalues not converged
     c_bands:  2 eigenvalues not converged
     c_bands:  3 eigenvalues not converged
     c_bands:  2 eigenvalues not converged
     c_bands:  3 eigenvalues not converged
     c_bands:  2 eigenvalues not converged
     c_bands:  3 eigenvalues not converged
     c_bands:  3 eigenvalues not converged
     c_bands:  3 eigenvalues not converged
     c_bands:  3 eigenvalues not converged
     c_bands:  3 eigenvalues not converged
     c_bands:  3 eigenvalues not converged
     c_bands:  3 eigenvalues not converged
     c_bands:  3 eigenvalues not converged
     c_bands:  4 eigenvalues not converged
     c_bands:  3 eigenvalues not converged
     c_bands:  3 eigenvalues not converged
     c_bands:  4 eigenvalues not converged
     c_bands:  3 eigenvalues not converged
     c_bands:  2 eigenvalues not converged
     c_bands:  1 eigenvalues not converged
     c_bands:  3 eigenvalues not converged
     c_bands:  3 eigenvalues not converged
     c_bands:  3 eigenvalues not converged
     c_bands:  3 eigenvalues not converged
     c_bands:  4 eigenvalues not converged
     c_bands:  1 eigenvalues not converged
     c_bands:  1 eigenvalues not converged
     c_bands:  2 eigenvalues not converged
     c_bands:  2 eigenvalues not converged
     c_bands:  2 eigenvalues not converged
     c_bands:  2 eigenvalues not converged
     c_bands:  1 eigenvalues not converged
     c_bands:  2 eigenvalues not converged
     c_bands:  1 eigenvalues not converged
     c_bands:  2 eigenvalues not converged
     c_bands:  2 eigenvalues not converged
     c_bands:  3 eigenvalues not converged
     c_bands:  4 eigenvalues not converged
     c_bands:  2 eigenvalues not converged
     c_bands:  2 eigenvalues not converged
     c_bands:  2 eigenvalues not converged
     c_bands:  3 eigenvalues not converged
     c_bands:  2 eigenvalues not converged
     c_bands:  3 eigenvalues not converged
     c_bands:  2 eigenvalues not converged
     c_bands:  2 eigenvalues not converged
     c_bands:  2 eigenvalues not converged
     c_bands:  1 eigenvalues not converged
     c_bands:  2 eigenvalues not converged
     c_bands:  2 eigenvalues not converged
     c_bands:  1 eigenvalues not converged
     c_bands:  2 eigenvalues not converged
     c_bands:  1 eigenvalues not converged
     c_bands:  3 eigenvalues not converged
     c_bands:  3 eigenvalues not converged
     c_bands:  3 eigenvalues not converged
     c_bands:  3 eigenvalues not converged
     c_bands:  2 eigenvalues not converged
     c_bands:  3 eigenvalues not converged
     c_bands:  2 eigenvalues not converged
     c_bands:  3 eigenvalues not converged
     c_bands:  2 eigenvalues not converged
     c_bands:  1 eigenvalues not converged
     c_bands:  2 eigenvalues not converged
     c_bands:  4 eigenvalues not converged
     c_bands:  4 eigenvalues not converged
     c_bands:  4 eigenvalues not converged
     c_bands:  1 eigenvalues not converged
     c_bands:  4 eigenvalues not converged
     c_bands:  4 eigenvalues not converged
     c_bands:  3 eigenvalues not converged
     c_bands:  3 eigenvalues not converged
     c_bands:  2 eigenvalues not converged
     c_bands:  2 eigenvalues not converged
     c_bands:  2 eigenvalues not converged
     c_bands:  4 eigenvalues not converged
     c_bands:  3 eigenvalues not converged
     c_bands:  4 eigenvalues not converged
     c_bands:  4 eigenvalues not converged
     c_bands:  3 eigenvalues not converged
     c_bands:  4 eigenvalues not converged
     c_bands:  2 eigenvalues not converged
     c_bands:  4 eigenvalues not converged
     c_bands:  4 eigenvalues not converged
     c_bands:  4 eigenvalues not converged
     c_bands:  2 eigenvalues not converged
     c_bands:  3 eigenvalues not converged
     c_bands:  2 eigenvalues not converged
     c_bands:  2 eigenvalues not converged
     c_bands:  3 eigenvalues not converged
     c_bands:  3 eigenvalues not converged
     c_bands:  3 eigenvalues not converged
     c_bands:  2 eigenvalues not converged
     c_bands:  2 eigenvalues not converged
     c_bands:  3 eigenvalues not converged
     c_bands:  2 eigenvalues not converged
     c_bands:  3 eigenvalues not converged
     c_bands:  2 eigenvalues not converged
     c_bands:  3 eigenvalues not converged
     c_bands:  3 eigenvalues not converged
     c_bands:  3 eigenvalues not converged
     c_bands:  3 eigenvalues not converged
     c_bands:  2 eigenvalues not converged
     c_bands:  3 eigenvalues not converged
     c_bands:  3 eigenvalues not converged
     c_bands:  2 eigenvalues not converged
     c_bands:  4 eigenvalues not converged
     c_bands:  2 eigenvalues not converged
     c_bands:  2 eigenvalues not converged
     c_bands:  3 eigenvalues not converged
     c_bands:  2 eigenvalues not converged
     c_bands:  3 eigenvalues not converged
     c_bands:  3 eigenvalues not converged
     c_bands:  2 eigenvalues not converged
     c_bands:  4 eigenvalues not converged
     c_bands:  4 eigenvalues not converged
     c_bands:  3 eigenvalues not converged
     c_bands:  4 eigenvalues not converged
     c_bands:  2 eigenvalues not converged
     c_bands:  2 eigenvalues not converged
     c_bands:  4 eigenvalues not converged
     c_bands:  2 eigenvalues not converged
     c_bands:  2 eigenvalues not converged
     c_bands:  4 eigenvalues not converged
     c_bands:  2 eigenvalues not converged
     c_bands:  4 eigenvalues not converged
     c_bands:  4 eigenvalues not converged
     c_bands:  3 eigenvalues not converged
     c_bands:  4 eigenvalues not converged
     c_bands:  3 eigenvalues not converged
     c_bands:  3 eigenvalues not converged
     c_bands:  3 eigenvalues not converged
     c_bands:  3 eigenvalues not converged
     c_bands:  3 eigenvalues not converged
     c_bands:  2 eigenvalues not converged
     c_bands:  4 eigenvalues not converged
     c_bands:  3 eigenvalues not converged
     c_bands:  4 eigenvalues not converged
     c_bands:  3 eigenvalues not converged
     c_bands:  3 eigenvalues not converged
     c_bands:  4 eigenvalues not converged
     ethr =  1.00E-06,  avg # of iterations = 20.0

     total cpu time spent up to now is     1156.1 secs

     total energy              =     -85.39847705 Ry
     estimated scf accuracy    <       0.17182373 Ry

     iteration #  2     ecut=    80.00 Ry     beta= 0.30
     Davidson diagonalization with overlap
     ethr =  8.59E-04,  avg # of iterations =  1.1

     total cpu time spent up to now is     1157.7 secs

     total energy              =     -85.37787198 Ry
     estimated scf accuracy    <       0.06414103 Ry

     iteration #  3     ecut=    80.00 Ry     beta= 0.30
     Davidson diagonalization with overlap
     ethr =  3.21E-04,  avg # of iterations =  4.5

     total cpu time spent up to now is     1160.2 secs

     total energy              =     -85.38989479 Ry
     estimated scf accuracy    <       0.00740396 Ry

     iteration #  4     ecut=    80.00 Ry     beta= 0.30
     Davidson diagonalization with overlap
     c_bands:  1 eigenvalues not converged
     ethr =  3.70E-05,  avg # of iterations =  6.1

     total cpu time spent up to now is     1163.2 secs

     total energy              =     -85.38960193 Ry
     estimated scf accuracy    <       0.01303478 Ry

     iteration #  5     ecut=    80.00 Ry     beta= 0.30
     Davidson diagonalization with overlap
     c_bands:  1 eigenvalues not converged
     ethr =  3.70E-05,  avg # of iterations =  3.8

     total cpu time spent up to now is     1165.5 secs

     total energy              =     -85.39169995 Ry
     estimated scf accuracy    <       0.00005150 Ry

     iteration #  6     ecut=    80.00 Ry     beta= 0.30
     Davidson diagonalization with overlap
     c_bands:  1 eigenvalues not converged
     c_bands:  2 eigenvalues not converged
     c_bands:  1 eigenvalues not converged
     c_bands:  1 eigenvalues not converged
     c_bands:  1 eigenvalues not converged
     c_bands:  1 eigenvalues not converged
     c_bands:  1 eigenvalues not converged
     c_bands:  1 eigenvalues not converged
     c_bands:  1 eigenvalues not converged
     c_bands:  1 eigenvalues not converged
     c_bands:  1 eigenvalues not converged
     c_bands:  2 eigenvalues not converged
     c_bands:  1 eigenvalues not converged
     c_bands:  1 eigenvalues not converged
     c_bands:  1 eigenvalues not converged
     ethr =  2.58E-07,  avg # of iterations = 11.6

     total cpu time spent up to now is     1170.9 secs

     total energy              =     -85.39198065 Ry
     estimated scf accuracy    <       0.00045724 Ry

     iteration #  7     ecut=    80.00 Ry     beta= 0.30
     Davidson diagonalization with overlap
     ethr =  2.58E-07,  avg # of iterations =  5.6

     total cpu time spent up to now is     1173.8 secs

     total energy              =     -85.39203447 Ry
     estimated scf accuracy    <       0.00002269 Ry

     iteration #  8     ecut=    80.00 Ry     beta= 0.30
     Davidson diagonalization with overlap
     ethr =  1.13E-07,  avg # of iterations =  2.7

     total cpu time spent up to now is     1175.7 secs

     total energy              =     -85.39203694 Ry
     estimated scf accuracy    <       0.00000289 Ry

     iteration #  9     ecut=    80.00 Ry     beta= 0.30
     Davidson diagonalization with overlap
     ethr =  1.44E-08,  avg # of iterations =  5.3

     total cpu time spent up to now is     1178.5 secs

     total energy              =     -85.39203997 Ry
     estimated scf accuracy    <       0.00000028 Ry

     iteration # 10     ecut=    80.00 Ry     beta= 0.30
     Davidson diagonalization with overlap
     ethr =  1.38E-09,  avg # of iterations =  2.9

     total cpu time spent up to now is     1180.4 secs

     total energy              =     -85.39203995 Ry
     estimated scf accuracy    <       0.00000011 Ry

     iteration # 11     ecut=    80.00 Ry     beta= 0.30
     Davidson diagonalization with overlap
     ethr =  5.43E-10,  avg # of iterations =  3.0

     total cpu time spent up to now is     1182.6 secs

     total energy              =     -85.39203998 Ry
     estimated scf accuracy    <          3.4E-10 Ry

     iteration # 12     ecut=    80.00 Ry     beta= 0.30
     Davidson diagonalization with overlap
     ethr =  1.71E-12,  avg # of iterations = 10.0

     total cpu time spent up to now is     1187.7 secs

     total energy              =     -85.39203999 Ry
     estimated scf accuracy    <          6.9E-09 Ry

     iteration # 13     ecut=    80.00 Ry     beta= 0.30
     Davidson diagonalization with overlap
     ethr =  1.71E-12,  avg # of iterations =  6.9

     total cpu time spent up to now is     1191.4 secs

     total energy              =     -85.39203999 Ry
     estimated scf accuracy    <          2.6E-10 Ry

     iteration # 14     ecut=    80.00 Ry     beta= 0.30
     Davidson diagonalization with overlap
     ethr =  1.29E-12,  avg # of iterations =  1.1

     total cpu time spent up to now is     1193.0 secs

     total energy              =     -85.39203999 Ry
     estimated scf accuracy    <          1.2E-10 Ry

     iteration # 15     ecut=    80.00 Ry     beta= 0.30
     Davidson diagonalization with overlap
     ethr =  5.75E-13,  avg # of iterations =  2.8

     total cpu time spent up to now is     1195.0 secs

     End of self-consistent calculation

     Number of k-points >= 100: set verbosity='high' to print the bands.

     the Fermi energy is    17.3945 ev

!    total energy              =     -85.39203999 Ry
     estimated scf accuracy    <          1.2E-13 Ry
     smearing contrib. (-TS)   =       0.00005750 Ry
     internal energy E=F+TS    =     -85.39209749 Ry

     The total energy is F=E-TS. E is the sum of the following terms:
     one-electron contribution =       6.74654263 Ry
     hartree contribution      =      10.00430566 Ry
     xc contribution           =     -21.27138062 Ry
     ewald contribution        =     -80.87156517 Ry

     convergence has been achieved in  15 iterations

     Forces acting on atoms (cartesian axes, Ry/au):

     atom    1 type  1   force =    -0.00000000   -0.00000000   -0.00000000
     atom    2 type  2   force =    -0.00001361    0.00001361    0.00001361
     atom    3 type  2   force =     0.00001361   -0.00001361   -0.00001361
     atom    4 type  2   force =     0.00000311   -0.00000311   -0.00000311
     atom    5 type  2   force =    -0.00000311    0.00000311    0.00000311
     atom    6 type  2   force =     0.00000078   -0.00000078    0.00000988
     atom    7 type  2   force =    -0.00000078    0.00000078   -0.00000988
     atom    8 type  2   force =    -0.00000988   -0.00000078   -0.00000078
     atom    9 type  2   force =     0.00000988    0.00000078    0.00000078
     atom   10 type  2   force =     0.00000078    0.00000988   -0.00000078
     atom   11 type  2   force =    -0.00000078   -0.00000988    0.00000078

     Total force =     0.000042     Total SCF correction =     0.000000


     Computing stress (Cartesian axis) and pressure

          total   stress  (Ry/bohr**3)                   (kbar)     P=     2499.82
   0.01699341   0.00000012   0.00000012         2499.82        0.02        0.02
   0.00000012   0.01699341  -0.00000012            0.02     2499.82       -0.02
   0.00000012  -0.00000012   0.01699341            0.02       -0.02     2499.82


     Writing all to output data dir ./out/cah10.save/ :
     XML data file, charge density, pseudopotentials, collected wavefunctions

     init_run     :      3.26s CPU      3.47s WALL (       2 calls)
     electrons    :   1070.91s CPU   1154.64s WALL (      29 calls)
     update_pot   :      0.40s CPU      0.44s WALL (      27 calls)
     forces       :      5.80s CPU      6.47s WALL (      29 calls)
     stress       :     25.94s CPU     28.62s WALL (      29 calls)

     Called by init_run:
     wfcinit      :      1.98s CPU      2.12s WALL (       2 calls)
     potinit      :      0.43s CPU      0.44s WALL (       2 calls)
     hinit0       :      0.73s CPU      0.77s WALL (       2 calls)

     Called by electrons:
     c_bands      :    941.51s CPU   1014.57s WALL (     299 calls)
     sum_band     :    120.07s CPU    130.05s WALL (     299 calls)
     v_of_rho     :      2.62s CPU      2.87s WALL (     325 calls)
     newd         :      6.93s CPU      7.30s WALL (     325 calls)
     mix_rho      :      0.32s CPU      0.37s WALL (     299 calls)

     Called by c_bands:
     init_us_2    :     17.01s CPU     18.41s WALL (  124362 calls)
     cegterg      :    917.74s CPU    988.48s WALL (   56511 calls)

     Called by *egterg:
     cdiaghg      :    104.78s CPU    112.14s WALL (  305166 calls)
     h_psi        :    695.87s CPU    747.39s WALL (  311214 calls)
     s_psi        :     15.24s CPU     16.65s WALL (  311214 calls)
     g_psi        :      5.05s CPU      5.39s WALL (  254325 calls)

     Called by h_psi:
     h_psi:calbec :     33.82s CPU     36.78s WALL (  311214 calls)
     vloc_psi     :    641.19s CPU    688.32s WALL (  311214 calls)
                                        0.00s GPU  (  311214 calls)
     add_vuspsi   :     16.08s CPU     17.35s WALL (  311214 calls)

     General routines
     calbec       :     51.76s CPU     57.31s WALL (  460902 calls)
     fft          :      1.95s CPU      2.25s WALL (    4922 calls)
     ffts         :      0.48s CPU      0.52s WALL (     624 calls)
     fftw         :    655.91s CPU    706.54s WALL ( 6264844 calls)
     interpolate  :      0.55s CPU      0.59s WALL (     325 calls)

     Parallel routines

     PWSCF        :  18m28.65s CPU  19m56.31s WALL


   This run was terminated on:   3:35:16  15Jun2026            

=------------------------------------------------------------------------------=
   JOB DONE.
=------------------------------------------------------------------------------=
