
     Program PWSCF v.7.5 starts on 16Jun2026 at  9:32:22 

     This program is part of the open-source Quantum ESPRESSO suite
     for quantum simulation of materials; please cite
         "P. Giannozzi et al., J. Phys.:Condens. Matter 21 395502 (2009);
         "P. Giannozzi et al., J. Phys.:Condens. Matter 29 465901 (2017);
         "P. Giannozzi et al., J. Chem. Phys. 152 154105 (2020);
          URL http://www.quantum-espresso.org", 
     in publications or presentations arising from this work. More details at
     http://www.quantum-espresso.org/quote

     Parallel version (MPI & OpenMP), running on       6 processor cores
     Number of MPI processes:                 6
     Threads/MPI process:                     1

     MPI processes distributed on     1 nodes
     8845 MiB available memory on the printing compute node when the environment starts

     Reading input from scf.in

     Current dimensions of program PWSCF are:
     Max number of different atomic species (ntypx) = 10
     Max number of k-points (npk) =  40000
     Max angular momentum in pseudopotentials (lmaxx) =  4

     R & G space division:  proc/nbgrp/npool/nimage =       6
     Subspace diagonalization in iterative solution of the eigenvalue problem:
     a serial algorithm will be used


     Parallelization info
     --------------------
     sticks:   dense  smooth     PW     G-vecs:    dense   smooth      PW
     Min         484     484    136                13134    13134    1972
     Max         485     485    138                13137    13137    1973
     Sum        2905    2905    823                78809    78809   11835

     Using Slab Decomposition



     bravais-lattice index     =            4
     lattice parameter (alat)  =      10.8044  a.u.
     unit-cell volume          =     682.6386 (a.u.)^3
     number of atoms/cell      =            6
     number of atomic types    =            3
     number of electrons       =        67.00
     number of Kohn-Sham states=           41
     kinetic-energy cutoff     =      90.0000  Ry
     charge density cutoff     =     360.0000  Ry
     scf convergence threshold =      1.0E-10
     mixing beta               =       0.4000
     number of iterations used =            8  plain     mixing
     Exchange-correlation= PBE
                           (   1   4   3   4   0   0   0)

     celldm(1)=  10.804450  celldm(2)=   0.000000  celldm(3)=   0.624960
     celldm(4)=   0.000000  celldm(5)=   0.000000  celldm(6)=   0.000000

     crystal axes: (cart. coord. in units of alat)
               a(1) = (   1.000000   0.000000   0.000000 )  
               a(2) = (  -0.500000   0.866025   0.000000 )  
               a(3) = (   0.000000   0.000000   0.624960 )  

     reciprocal axes: (cart. coord. in units 2 pi/alat)
               b(1) = (  1.000000  0.577350 -0.000000 )  
               b(2) = (  0.000000  1.154701  0.000000 )  
               b(3) = (  0.000000 -0.000000  1.600102 )  


     PseudoPot. # 1 for La read from file:
     ./pseudo/La_ONCV_PBE_sr.upf
     MD5 check sum: a50acaeba93a6b852b3e187ea6859932
     Pseudo is Norm-conserving, Zval = 11.0
     Generated using ONCVPSP code by D. R. Hamann
     Using radial grid of  602 points,  8 beta functions with: 
                l(1) =   0
                l(2) =   0
                l(3) =   1
                l(4) =   1
                l(5) =   2
                l(6) =   2
                l(7) =   3
                l(8) =   3

     PseudoPot. # 2 for Os read from file:
     ./pseudo/Os_ONCV_PBE_sr.upf
     MD5 check sum: 95cd203db9fc26cc83e0e7c2505c7528
     Pseudo is Norm-conserving, Zval = 16.0
     Generated using ONCVPSP code by D. R. Hamann
     Using radial grid of  602 points,  8 beta functions with: 
                l(1) =   0
                l(2) =   0
                l(3) =   1
                l(4) =   1
                l(5) =   2
                l(6) =   2
                l(7) =   3
                l(8) =   3

     PseudoPot. # 3 for Si read from file:
     ./pseudo/Si_ONCV_PBE_sr.upf
     MD5 check sum: 7f029a58b69e3aa87b46a36c608bf45e
     Pseudo is Norm-conserving, Zval =  4.0
     Generated using ONCVPSP code by D. R. Hamann
     Using radial grid of  602 points,  4 beta functions with: 
                l(1) =   0
                l(2) =   0
                l(3) =   1
                l(4) =   1

     atomic species   valence    mass     pseudopotential
     La               11.00   138.90500     La( 1.00)
     Os               16.00   100.00000     Os( 1.00)
     Si                4.00    28.08550     Si( 1.00)

     Starting magnetic structure 
     atomic species   magnetization
     La              0.000
     Os              0.100
     Si              0.000

     24 Sym. Ops., with inversion, found



   Cartesian axes

     site n.     atom                  positions (alat units)
         1        La     tau(   1) = (   0.0000000   0.0000000   0.0000000  )
         2        Os     tau(   2) = (   0.5000000   0.0000000   0.3124800  )
         3        Os     tau(   3) = (  -0.2500000   0.4330127   0.3124800  )
         4        Os     tau(   4) = (   0.2500000   0.4330127   0.3124800  )
         5        Si     tau(   5) = (  -0.0000005   0.5773506   0.0000000  )
         6        Si     tau(   6) = (   0.5000005   0.2886748   0.0000000  )

     number of k points=   133  Methfessel-Paxton smearing, width (Ry)=  0.0200

     Number of k-points >= 100: set verbosity='high' to print them.

     Dense  grid:    78809 G-vectors     FFT dimensions: (  72,  72,  45)

     Estimated max dynamical RAM per process >     307.71 MB

     Estimated total dynamical RAM >       1.80 GB
     Generating pointlists ...
     new r_m :   0.2382 (alat units)  2.5732 (a.u.) for type    1
     new r_m :   0.1755 (alat units)  1.8960 (a.u.) for type    2
     new r_m :   0.1755 (alat units)  1.8960 (a.u.) for type    3

     Initial potential from superposition of free atoms

     starting charge      66.4850, renormalised to      67.0000
     Starting wfcs are random

     total cpu time spent up to now is        7.2 secs

     per-process dynamical memory:   309.8 Mb

     Self-consistent Calculation

     iteration #  1     ecut=    90.00 Ry     beta= 0.40
     Davidson diagonalization with overlap
     ethr =  1.00E-02,  avg # of iterations = 10.2

     Threshold (ethr) on eigenvalues was too large:
     Diagonalizing with lowered threshold

     Davidson diagonalization with overlap
     c_bands:  1 eigenvalues not converged
     c_bands:  1 eigenvalues not converged
     c_bands:  1 eigenvalues not converged
     ethr =  4.47E-04,  avg # of iterations =  6.0

     total cpu time spent up to now is       88.0 secs

     total energy              =    -631.94291792 Ry
     estimated scf accuracy    <       0.28037558 Ry

     total magnetization       =     1.70 Bohr mag/cell
     absolute magnetization    =     1.97 Bohr mag/cell

     iteration #  2     ecut=    90.00 Ry     beta= 0.40
     Davidson diagonalization with overlap
     c_bands:  1 eigenvalues not converged
     ethr =  4.18E-04,  avg # of iterations =  7.7

     total cpu time spent up to now is      115.6 secs

     total energy              =    -631.99427413 Ry
     estimated scf accuracy    <       0.04854793 Ry

     total magnetization       =     1.39 Bohr mag/cell
     absolute magnetization    =     1.67 Bohr mag/cell

     iteration #  3     ecut=    90.00 Ry     beta= 0.40
     Davidson diagonalization with overlap
     c_bands:  2 eigenvalues not converged
     c_bands:  1 eigenvalues not converged
     c_bands:  1 eigenvalues not converged
     c_bands:  1 eigenvalues not converged
     c_bands:  1 eigenvalues not converged
     c_bands:  1 eigenvalues not converged
     c_bands:  1 eigenvalues not converged
     c_bands:  1 eigenvalues not converged
     ethr =  7.25E-05,  avg # of iterations = 10.7

     total cpu time spent up to now is      147.9 secs

     total energy              =    -632.00744143 Ry
     estimated scf accuracy    <       0.02040044 Ry

     total magnetization       =     1.24 Bohr mag/cell
     absolute magnetization    =     1.50 Bohr mag/cell

     iteration #  4     ecut=    90.00 Ry     beta= 0.40
     Davidson diagonalization with overlap
     c_bands:  1 eigenvalues not converged
     c_bands:  1 eigenvalues not converged
     c_bands:  1 eigenvalues not converged
     ethr =  3.04E-05,  avg # of iterations =  6.5

     total cpu time spent up to now is      173.4 secs

     total energy              =    -632.01431741 Ry
     estimated scf accuracy    <       0.00744867 Ry

     total magnetization       =     1.06 Bohr mag/cell
     absolute magnetization    =     1.30 Bohr mag/cell

     iteration #  5     ecut=    90.00 Ry     beta= 0.40
     Davidson diagonalization with overlap
     c_bands:  1 eigenvalues not converged
     c_bands:  1 eigenvalues not converged
     c_bands:  1 eigenvalues not converged
     c_bands:  1 eigenvalues not converged
     c_bands:  2 eigenvalues not converged
     c_bands:  2 eigenvalues not converged
     c_bands:  1 eigenvalues not converged
     c_bands:  1 eigenvalues not converged
     c_bands:  2 eigenvalues not converged
     c_bands:  1 eigenvalues not converged
     c_bands:  1 eigenvalues not converged
     c_bands:  1 eigenvalues not converged
     c_bands:  4 eigenvalues not converged
     c_bands:  2 eigenvalues not converged
     c_bands:  4 eigenvalues not converged
     ethr =  1.11E-05,  avg # of iterations =  4.9

     total cpu time spent up to now is      196.4 secs

     total energy              =    -632.01639592 Ry
     estimated scf accuracy    <       0.00110946 Ry

     total magnetization       =     0.86 Bohr mag/cell
     absolute magnetization    =     1.07 Bohr mag/cell

     iteration #  6     ecut=    90.00 Ry     beta= 0.40
     Davidson diagonalization with overlap
     c_bands:  1 eigenvalues not converged
     c_bands:  1 eigenvalues not converged
     c_bands:  2 eigenvalues not converged
     c_bands:  3 eigenvalues not converged
     c_bands:  1 eigenvalues not converged
     c_bands:  1 eigenvalues not converged
     c_bands:  2 eigenvalues not converged
     c_bands:  3 eigenvalues not converged
     c_bands:  2 eigenvalues not converged
     c_bands:  2 eigenvalues not converged
     c_bands:  1 eigenvalues not converged
     c_bands:  1 eigenvalues not converged
     c_bands:  3 eigenvalues not converged
     c_bands:  2 eigenvalues not converged
     c_bands:  1 eigenvalues not converged
     c_bands:  2 eigenvalues not converged
     c_bands:  3 eigenvalues not converged
     c_bands:  1 eigenvalues not converged
     c_bands:  4 eigenvalues not converged
     c_bands:  1 eigenvalues not converged
     c_bands:  1 eigenvalues not converged
     c_bands:  1 eigenvalues not converged
     c_bands:  2 eigenvalues not converged
     c_bands:  1 eigenvalues not converged
     c_bands:  3 eigenvalues not converged
     c_bands:  3 eigenvalues not converged
     c_bands:  3 eigenvalues not converged
     c_bands:  2 eigenvalues not converged
     c_bands:  3 eigenvalues not converged
     c_bands:  3 eigenvalues not converged
     c_bands:  3 eigenvalues not converged
     c_bands:  4 eigenvalues not converged
     c_bands:  2 eigenvalues not converged
     c_bands:  2 eigenvalues not converged
     c_bands:  1 eigenvalues not converged
     c_bands:  1 eigenvalues not converged
     c_bands:  4 eigenvalues not converged
     c_bands:  3 eigenvalues not converged
     c_bands:  2 eigenvalues not converged
     c_bands:  3 eigenvalues not converged
     c_bands:  2 eigenvalues not converged
     c_bands:  3 eigenvalues not converged
     c_bands:  2 eigenvalues not converged
     c_bands:  1 eigenvalues not converged
     c_bands:  1 eigenvalues not converged
     c_bands:  2 eigenvalues not converged
     c_bands:  1 eigenvalues not converged
     c_bands:  1 eigenvalues not converged
     c_bands:  4 eigenvalues not converged
     c_bands:  2 eigenvalues not converged
     c_bands:  2 eigenvalues not converged
     c_bands:  2 eigenvalues not converged
     c_bands:  3 eigenvalues not converged
     c_bands:  1 eigenvalues not converged
     c_bands:  1 eigenvalues not converged
     c_bands:  2 eigenvalues not converged
     c_bands:  2 eigenvalues not converged
     c_bands:  1 eigenvalues not converged
     c_bands:  3 eigenvalues not converged
     c_bands:  1 eigenvalues not converged
     c_bands:  1 eigenvalues not converged
     c_bands:  1 eigenvalues not converged
     c_bands:  3 eigenvalues not converged
     c_bands:  2 eigenvalues not converged
     c_bands:  1 eigenvalues not converged
     c_bands:  1 eigenvalues not converged
     c_bands:  2 eigenvalues not converged
     c_bands:  2 eigenvalues not converged
     c_bands:  1 eigenvalues not converged
     c_bands:  3 eigenvalues not converged
     c_bands:  3 eigenvalues not converged
     c_bands:  1 eigenvalues not converged
     c_bands:  1 eigenvalues not converged
     c_bands:  1 eigenvalues not converged
     c_bands:  3 eigenvalues not converged
     c_bands:  1 eigenvalues not converged
     c_bands:  2 eigenvalues not converged
     c_bands:  2 eigenvalues not converged
     c_bands:  2 eigenvalues not converged
     c_bands:  3 eigenvalues not converged
     c_bands:  3 eigenvalues not converged
     c_bands:  2 eigenvalues not converged
     c_bands:  1 eigenvalues not converged
     c_bands:  1 eigenvalues not converged
     c_bands:  3 eigenvalues not converged
     c_bands:  4 eigenvalues not converged
     c_bands:  1 eigenvalues not converged
     c_bands:  2 eigenvalues not converged
     c_bands:  2 eigenvalues not converged
     c_bands:  3 eigenvalues not converged
     c_bands:  1 eigenvalues not converged
     c_bands:  2 eigenvalues not converged
     c_bands:  2 eigenvalues not converged
     c_bands:  1 eigenvalues not converged
     c_bands:  3 eigenvalues not converged
     c_bands:  4 eigenvalues not converged
     c_bands:  3 eigenvalues not converged
     c_bands:  4 eigenvalues not converged
     c_bands:  1 eigenvalues not converged
     c_bands:  3 eigenvalues not converged
     c_bands:  3 eigenvalues not converged
     c_bands:  3 eigenvalues not converged
     c_bands:  3 eigenvalues not converged
     c_bands:  3 eigenvalues not converged
     c_bands:  1 eigenvalues not converged
     c_bands:  3 eigenvalues not converged
     c_bands:  1 eigenvalues not converged
     c_bands:  1 eigenvalues not converged
     c_bands:  3 eigenvalues not converged
     c_bands:  4 eigenvalues not converged
     c_bands:  1 eigenvalues not converged
     c_bands:  1 eigenvalues not converged
     c_bands:  1 eigenvalues not converged
     c_bands:  1 eigenvalues not converged
     c_bands:  1 eigenvalues not converged
     c_bands:  1 eigenvalues not converged
     c_bands:  1 eigenvalues not converged
     c_bands:  1 eigenvalues not converged
     c_bands:  1 eigenvalues not converged
     c_bands:  1 eigenvalues not converged
     c_bands:  2 eigenvalues not converged
     c_bands:  2 eigenvalues not converged
     ethr =  1.66E-06,  avg # of iterations = 16.3

     total cpu time spent up to now is      237.7 secs

     total energy              =    -632.01742329 Ry
     estimated scf accuracy    <       0.00044524 Ry

     total magnetization       =     0.67 Bohr mag/cell
     absolute magnetization    =     0.83 Bohr mag/cell

     iteration #  7     ecut=    90.00 Ry     beta= 0.40
     Davidson diagonalization with overlap
     c_bands:  1 eigenvalues not converged
     c_bands:  1 eigenvalues not converged
     c_bands:  2 eigenvalues not converged
     c_bands:  3 eigenvalues not converged
     c_bands:  1 eigenvalues not converged
     c_bands:  1 eigenvalues not converged
     c_bands:  1 eigenvalues not converged
     c_bands:  1 eigenvalues not converged
     c_bands:  1 eigenvalues not converged
     c_bands:  2 eigenvalues not converged
     c_bands:  2 eigenvalues not converged
     c_bands:  2 eigenvalues not converged
     c_bands:  2 eigenvalues not converged
     c_bands:  1 eigenvalues not converged
     c_bands:  1 eigenvalues not converged
     c_bands:  1 eigenvalues not converged
     c_bands:  1 eigenvalues not converged
     c_bands:  1 eigenvalues not converged
     c_bands:  1 eigenvalues not converged
     c_bands:  1 eigenvalues not converged
     c_bands:  1 eigenvalues not converged
     c_bands:  1 eigenvalues not converged
     c_bands:  1 eigenvalues not converged
     c_bands:  1 eigenvalues not converged
     c_bands:  1 eigenvalues not converged
     c_bands:  1 eigenvalues not converged
     c_bands:  2 eigenvalues not converged
     c_bands:  4 eigenvalues not converged
     c_bands:  1 eigenvalues not converged
     c_bands:  1 eigenvalues not converged
     c_bands:  2 eigenvalues not converged
     c_bands:  2 eigenvalues not converged
     c_bands:  1 eigenvalues not converged
     c_bands:  1 eigenvalues not converged
     c_bands:  1 eigenvalues not converged
     ethr =  6.65E-07,  avg # of iterations =  8.6

     total cpu time spent up to now is      267.9 secs

     total energy              =    -632.01803497 Ry
     estimated scf accuracy    <       0.00035944 Ry

     total magnetization       =     0.48 Bohr mag/cell
     absolute magnetization    =     0.59 Bohr mag/cell

     iteration #  8     ecut=    90.00 Ry     beta= 0.40
     Davidson diagonalization with overlap
     c_bands:  1 eigenvalues not converged
     c_bands:  2 eigenvalues not converged
     c_bands:  1 eigenvalues not converged
     c_bands:  1 eigenvalues not converged
     c_bands:  1 eigenvalues not converged
     c_bands:  1 eigenvalues not converged
     c_bands:  1 eigenvalues not converged
     c_bands:  1 eigenvalues not converged
     c_bands:  1 eigenvalues not converged
     ethr =  5.36E-07,  avg # of iterations =  4.8

     total cpu time spent up to now is      291.6 secs

     total energy              =    -632.01816360 Ry
     estimated scf accuracy    <       0.00008762 Ry

     total magnetization       =     0.38 Bohr mag/cell
     absolute magnetization    =     0.46 Bohr mag/cell

     iteration #  9     ecut=    90.00 Ry     beta= 0.40
     Davidson diagonalization with overlap
     c_bands:  1 eigenvalues not converged
     c_bands:  2 eigenvalues not converged
     c_bands:  2 eigenvalues not converged
     c_bands:  1 eigenvalues not converged
     c_bands:  1 eigenvalues not converged
     c_bands:  1 eigenvalues not converged
     c_bands:  1 eigenvalues not converged
     ethr =  1.31E-07,  avg # of iterations =  8.6

     total cpu time spent up to now is      324.7 secs

     total energy              =    -632.01853526 Ry
     estimated scf accuracy    <       0.00005280 Ry

     total magnetization       =     0.21 Bohr mag/cell
     absolute magnetization    =     0.24 Bohr mag/cell

     iteration # 10     ecut=    90.00 Ry     beta= 0.40
     Davidson diagonalization with overlap
     ethr =  7.88E-08,  avg # of iterations =  4.3

     total cpu time spent up to now is      350.3 secs

     total energy              =    -632.01844390 Ry
     estimated scf accuracy    <       0.00000981 Ry

     total magnetization       =     0.16 Bohr mag/cell
     absolute magnetization    =     0.18 Bohr mag/cell

     iteration # 11     ecut=    90.00 Ry     beta= 0.40
     Davidson diagonalization with overlap
     c_bands:  1 eigenvalues not converged
     c_bands:  1 eigenvalues not converged
     c_bands:  1 eigenvalues not converged
     c_bands:  2 eigenvalues not converged
     c_bands:  2 eigenvalues not converged
     c_bands:  1 eigenvalues not converged
     ethr =  1.46E-08,  avg # of iterations =  9.0

     total cpu time spent up to now is      387.4 secs

     total energy              =    -632.01864313 Ry
     estimated scf accuracy    <       0.00002790 Ry

     total magnetization       =     0.02 Bohr mag/cell
     absolute magnetization    =     0.03 Bohr mag/cell

     iteration # 12     ecut=    90.00 Ry     beta= 0.40
     Davidson diagonalization with overlap
     c_bands:  1 eigenvalues not converged
     ethr =  1.46E-08,  avg # of iterations =  4.7

     total cpu time spent up to now is      412.9 secs

     total energy              =    -632.01864951 Ry
     estimated scf accuracy    <       0.00000233 Ry

     total magnetization       =     0.01 Bohr mag/cell
     absolute magnetization    =     0.02 Bohr mag/cell

     iteration # 13     ecut=    90.00 Ry     beta= 0.40
     Davidson diagonalization with overlap
     ethr =  3.47E-09,  avg # of iterations =  5.7

     total cpu time spent up to now is      441.6 secs

     total energy              =    -632.01865277 Ry
     estimated scf accuracy    <       0.00000051 Ry

     total magnetization       =     0.00 Bohr mag/cell
     absolute magnetization    =     0.00 Bohr mag/cell

     iteration # 14     ecut=    90.00 Ry     beta= 0.40
     Davidson diagonalization with overlap
     ethr =  7.63E-10,  avg # of iterations =  4.9

     total cpu time spent up to now is      465.3 secs

     total energy              =    -632.01865303 Ry
     estimated scf accuracy    <       0.00000004 Ry

     total magnetization       =    -0.00 Bohr mag/cell
     absolute magnetization    =     0.00 Bohr mag/cell

     iteration # 15     ecut=    90.00 Ry     beta= 0.40
     Davidson diagonalization with overlap
     c_bands:  1 eigenvalues not converged
     ethr =  5.82E-11,  avg # of iterations =  7.7

     total cpu time spent up to now is      498.5 secs

     total energy              =    -632.01865311 Ry
     estimated scf accuracy    <       0.00000003 Ry

     total magnetization       =    -0.00 Bohr mag/cell
     absolute magnetization    =     0.00 Bohr mag/cell

     iteration # 16     ecut=    90.00 Ry     beta= 0.40
     Davidson diagonalization with overlap
     ethr =  4.78E-11,  avg # of iterations =  2.8

     total cpu time spent up to now is      519.7 secs

     total energy              =    -632.01865312 Ry
     estimated scf accuracy    <          6.3E-10 Ry

     total magnetization       =     0.00 Bohr mag/cell
     absolute magnetization    =     0.00 Bohr mag/cell

     iteration # 17     ecut=    90.00 Ry     beta= 0.40
     Davidson diagonalization with overlap
     ethr =  9.45E-13,  avg # of iterations =  8.7

     total cpu time spent up to now is      556.8 secs

     total energy              =    -632.01865312 Ry
     estimated scf accuracy    <          1.1E-09 Ry

     total magnetization       =    -0.00 Bohr mag/cell
     absolute magnetization    =     0.00 Bohr mag/cell

     iteration # 18     ecut=    90.00 Ry     beta= 0.40
     Davidson diagonalization with overlap
     ethr =  9.45E-13,  avg # of iterations =  5.0

     total cpu time spent up to now is      583.8 secs

     total energy              =    -632.01865312 Ry
     estimated scf accuracy    <          1.7E-10 Ry

     total magnetization       =    -0.00 Bohr mag/cell
     absolute magnetization    =     0.00 Bohr mag/cell

     iteration # 19     ecut=    90.00 Ry     beta= 0.40
     Davidson diagonalization with overlap
     ethr =  2.50E-13,  avg # of iterations =  3.2

     Magnetic moment per site  (integrated on atomic sphere of radius R)
     atom   1 (R=0.238)  charge=  8.6976  magn=  0.0000
     atom   2 (R=0.175)  charge= 12.7141  magn= -0.0000
     atom   3 (R=0.175)  charge= 12.7141  magn= -0.0000
     atom   4 (R=0.175)  charge= 12.7141  magn= -0.0000
     atom   5 (R=0.175)  charge=  2.1678  magn= -0.0000
     atom   6 (R=0.175)  charge=  2.1678  magn= -0.0000

     total cpu time spent up to now is      606.4 secs

     End of self-consistent calculation

     Number of k-points >= 100: set verbosity='high' to print the bands.

     the Fermi energy is    17.2539 ev

!    total energy              =    -632.01865312 Ry
     estimated scf accuracy    <          4.5E-12 Ry
     smearing contrib. (-TS)   =      -0.00088883 Ry
     internal energy E=F+TS    =    -632.01776429 Ry

     The total energy is F=E-TS. E is the sum of the following terms:
     one-electron contribution =    -197.31418717 Ry
     hartree contribution      =     128.69336447 Ry
     xc contribution           =     -71.21286143 Ry
     ewald contribution        =    -492.18408016 Ry

     total magnetization       =    -0.00 Bohr mag/cell
     absolute magnetization    =     0.00 Bohr mag/cell

     convergence has been achieved in  19 iterations

     Forces acting on atoms (cartesian axes, Ry/au):

     atom    1 type  1   force =     0.00000000   -0.00000000    0.00000000
     atom    2 type  2   force =     0.00000000    0.00000000    0.00000000
     atom    3 type  2   force =    -0.00000000   -0.00000000   -0.00000000
     atom    4 type  2   force =     0.00000000    0.00000000    0.00000000
     atom    5 type  3   force =     0.00000000    0.00000000    0.00000000
     atom    6 type  3   force =    -0.00000000   -0.00000000   -0.00000000

     Total force =     0.000000     Total SCF correction =     0.000000


     Computing stress (Cartesian axis) and pressure

          total   stress  (Ry/bohr**3)                   (kbar)     P=       33.50
   0.00006476   0.00000000   0.00000000            9.53        0.00        0.00
   0.00000000   0.00006476   0.00000000            0.00        9.53        0.00
   0.00000000  -0.00000000   0.00055367            0.00       -0.00       81.45


     Writing all to output data dir ./out/laos3si2.save/ :
     XML data file, charge density, pseudopotentials, collected wavefunctions

     init_run     :      7.03s CPU      7.23s WALL (       1 calls)
     electrons    :    586.65s CPU    599.20s WALL (       1 calls)
     forces       :      2.95s CPU      2.97s WALL (       1 calls)
     stress       :     11.63s CPU     11.70s WALL (       1 calls)

     Called by init_run:
     wfcinit      :      6.72s CPU      6.91s WALL (       1 calls)
     potinit      :      0.04s CPU      0.04s WALL (       1 calls)
     hinit0       :      0.20s CPU      0.20s WALL (       1 calls)

     Called by electrons:
     c_bands      :    532.01s CPU    543.14s WALL (      20 calls)
     sum_band     :     54.09s CPU     55.50s WALL (      20 calls)
     v_of_rho     :      0.46s CPU      0.47s WALL (      20 calls)
     mix_rho      :      0.10s CPU      0.10s WALL (      20 calls)

     Called by c_bands:
     init_us_2    :     11.16s CPU     11.34s WALL (   11438 calls)
     cegterg      :    503.14s CPU    514.09s WALL (    5320 calls)

     Called by *egterg:
     cdiaghg      :     34.91s CPU     34.97s WALL (   42336 calls)
     h_psi        :    385.32s CPU    395.77s WALL (   42868 calls)
     g_psi        :      2.65s CPU      2.68s WALL (   37282 calls)

     Called by h_psi:
     h_psi:calbec :     43.89s CPU     44.79s WALL (   42868 calls)
     vloc_psi     :    319.74s CPU    329.15s WALL (   42868 calls)
                                        0.00s GPU  (   42868 calls)
     add_vuspsi   :     20.72s CPU     20.83s WALL (   42868 calls)

     General routines
     calbec       :     53.69s CPU     54.69s WALL (   47390 calls)
     fft          :      0.35s CPU      0.36s WALL (     391 calls)
     ffts         :      0.01s CPU      0.01s WALL (      40 calls)
     fftw         :    349.00s CPU    359.20s WALL ( 1654026 calls)

     Parallel routines

     PWSCF        :  10m 8.59s CPU  10m21.76s WALL


   This run was terminated on:   9:42:44  16Jun2026            

=------------------------------------------------------------------------------=
   JOB DONE.
=------------------------------------------------------------------------------=
Note: The following floating-point exceptions are signalling: IEEE_DENORMAL
