
     Program PWSCF v.7.5 starts on 16Jun2026 at  9:21:56 

     This program is part of the open-source Quantum ESPRESSO suite
     for quantum simulation of materials; please cite
         "P. Giannozzi et al., J. Phys.:Condens. Matter 21 395502 (2009);
         "P. Giannozzi et al., J. Phys.:Condens. Matter 29 465901 (2017);
         "P. Giannozzi et al., J. Chem. Phys. 152 154105 (2020);
          URL http://www.quantum-espresso.org", 
     in publications or presentations arising from this work. More details at
     http://www.quantum-espresso.org/quote

     Parallel version (MPI & OpenMP), running on       6 processor cores
     Number of MPI processes:                 6
     Threads/MPI process:                     1

     MPI processes distributed on     1 nodes
     13369 MiB available memory on the printing compute node when the environment starts

     Reading input from scf.in

     Current dimensions of program PWSCF are:
     Max number of different atomic species (ntypx) = 10
     Max number of k-points (npk) =  40000
     Max angular momentum in pseudopotentials (lmaxx) =  4

     R & G space division:  proc/nbgrp/npool/nimage =       6
     Subspace diagonalization in iterative solution of the eigenvalue problem:
     a serial algorithm will be used


     Parallelization info
     --------------------
     sticks:   dense  smooth     PW     G-vecs:    dense   smooth      PW
     Min         484     484    136                13134    13134    1972
     Max         485     485    138                13137    13137    1973
     Sum        2905    2905    823                78809    78809   11835

     Using Slab Decomposition



     bravais-lattice index     =            4
     lattice parameter (alat)  =      10.8044  a.u.
     unit-cell volume          =     682.6386 (a.u.)^3
     number of atoms/cell      =            6
     number of atomic types    =            3
     number of electrons       =        70.00
     number of Kohn-Sham states=           42
     kinetic-energy cutoff     =      90.0000  Ry
     charge density cutoff     =     360.0000  Ry
     scf convergence threshold =      1.0E-10
     mixing beta               =       0.4000
     number of iterations used =            8  plain     mixing
     Exchange-correlation= PBE
                           (   1   4   3   4   0   0   0)

     celldm(1)=  10.804450  celldm(2)=   0.000000  celldm(3)=   0.624960
     celldm(4)=   0.000000  celldm(5)=   0.000000  celldm(6)=   0.000000

     crystal axes: (cart. coord. in units of alat)
               a(1) = (   1.000000   0.000000   0.000000 )  
               a(2) = (  -0.500000   0.866025   0.000000 )  
               a(3) = (   0.000000   0.000000   0.624960 )  

     reciprocal axes: (cart. coord. in units 2 pi/alat)
               b(1) = (  1.000000  0.577350 -0.000000 )  
               b(2) = (  0.000000  1.154701  0.000000 )  
               b(3) = (  0.000000 -0.000000  1.600102 )  


     PseudoPot. # 1 for La read from file:
     ./pseudo/La_ONCV_PBE_sr.upf
     MD5 check sum: a50acaeba93a6b852b3e187ea6859932
     Pseudo is Norm-conserving, Zval = 11.0
     Generated using ONCVPSP code by D. R. Hamann
     Using radial grid of  602 points,  8 beta functions with: 
                l(1) =   0
                l(2) =   0
                l(3) =   1
                l(4) =   1
                l(5) =   2
                l(6) =   2
                l(7) =   3
                l(8) =   3

     PseudoPot. # 2 for Rh read from file:
     ./pseudo/Rh_ONCV_PBE_sr.upf
     MD5 check sum: bad865ff0eae7a34a2bc08b65ba9af62
     Pseudo is Norm-conserving, Zval = 17.0
     Generated using ONCVPSP code by D. R. Hamann
     Using radial grid of  602 points,  6 beta functions with: 
                l(1) =   0
                l(2) =   0
                l(3) =   1
                l(4) =   1
                l(5) =   2
                l(6) =   2

     PseudoPot. # 3 for Si read from file:
     ./pseudo/Si_ONCV_PBE_sr.upf
     MD5 check sum: 7f029a58b69e3aa87b46a36c608bf45e
     Pseudo is Norm-conserving, Zval =  4.0
     Generated using ONCVPSP code by D. R. Hamann
     Using radial grid of  602 points,  4 beta functions with: 
                l(1) =   0
                l(2) =   0
                l(3) =   1
                l(4) =   1

     atomic species   valence    mass     pseudopotential
     La               11.00   138.90500     La( 1.00)
     Rh               17.00   100.00000     Rh( 1.00)
     Si                4.00    28.08550     Si( 1.00)

     Starting magnetic structure 
     atomic species   magnetization
     La              0.000
     Rh              0.100
     Si              0.000

     24 Sym. Ops., with inversion, found



   Cartesian axes

     site n.     atom                  positions (alat units)
         1        La     tau(   1) = (   0.0000000   0.0000000   0.0000000  )
         2        Rh     tau(   2) = (   0.5000000   0.0000000   0.3124800  )
         3        Rh     tau(   3) = (  -0.2500000   0.4330127   0.3124800  )
         4        Rh     tau(   4) = (   0.2500000   0.4330127   0.3124800  )
         5        Si     tau(   5) = (  -0.0000005   0.5773506   0.0000000  )
         6        Si     tau(   6) = (   0.5000005   0.2886748   0.0000000  )

     number of k points=   133  Methfessel-Paxton smearing, width (Ry)=  0.0200

     Number of k-points >= 100: set verbosity='high' to print them.

     Dense  grid:    78809 G-vectors     FFT dimensions: (  72,  72,  45)

     Estimated max dynamical RAM per process >     313.44 MB

     Estimated total dynamical RAM >       1.84 GB
     Generating pointlists ...
     new r_m :   0.2382 (alat units)  2.5732 (a.u.) for type    1
     new r_m :   0.1755 (alat units)  1.8960 (a.u.) for type    2
     new r_m :   0.1755 (alat units)  1.8960 (a.u.) for type    3

     Initial potential from superposition of free atoms

     starting charge      69.4513, renormalised to      70.0000
     Starting wfcs are random

     total cpu time spent up to now is        7.0 secs

     per-process dynamical memory:   315.6 Mb

     Self-consistent Calculation

     iteration #  1     ecut=    90.00 Ry     beta= 0.40
     Davidson diagonalization with overlap
     ethr =  1.00E-02,  avg # of iterations = 10.1

     Threshold (ethr) on eigenvalues was too large:
     Diagonalizing with lowered threshold

     Davidson diagonalization with overlap
     ethr =  8.30E-04,  avg # of iterations =  1.6

     total cpu time spent up to now is       82.9 secs

     total energy              =    -731.25522783 Ry
     estimated scf accuracy    <       0.59795053 Ry

     total magnetization       =     0.42 Bohr mag/cell
     absolute magnetization    =     1.06 Bohr mag/cell

     iteration #  2     ecut=    90.00 Ry     beta= 0.40
     Davidson diagonalization with overlap
     ethr =  8.54E-04,  avg # of iterations =  9.9

     total cpu time spent up to now is      111.9 secs

     total energy              =    -731.32666245 Ry
     estimated scf accuracy    <       0.49086427 Ry

     total magnetization       =     0.53 Bohr mag/cell
     absolute magnetization    =     0.98 Bohr mag/cell

     iteration #  3     ecut=    90.00 Ry     beta= 0.40
     Davidson diagonalization with overlap
     ethr =  7.01E-04,  avg # of iterations =  2.0

     total cpu time spent up to now is      130.2 secs

     total energy              =    -731.42793569 Ry
     estimated scf accuracy    <       0.06076470 Ry

     total magnetization       =     0.29 Bohr mag/cell
     absolute magnetization    =     0.79 Bohr mag/cell

     iteration #  4     ecut=    90.00 Ry     beta= 0.40
     Davidson diagonalization with overlap
     c_bands:  1 eigenvalues not converged
     ethr =  8.68E-05,  avg # of iterations =  6.0

     total cpu time spent up to now is      152.5 secs

     total energy              =    -731.44193877 Ry
     estimated scf accuracy    <       0.00425573 Ry

     total magnetization       =     0.13 Bohr mag/cell
     absolute magnetization    =     0.49 Bohr mag/cell

     iteration #  5     ecut=    90.00 Ry     beta= 0.40
     Davidson diagonalization with overlap
     c_bands:  1 eigenvalues not converged
     c_bands:  1 eigenvalues not converged
     c_bands:  1 eigenvalues not converged
     c_bands:  1 eigenvalues not converged
     c_bands:  3 eigenvalues not converged
     c_bands:  2 eigenvalues not converged
     c_bands:  1 eigenvalues not converged
     c_bands:  2 eigenvalues not converged
     c_bands:  2 eigenvalues not converged
     c_bands:  1 eigenvalues not converged
     c_bands:  1 eigenvalues not converged
     c_bands:  2 eigenvalues not converged
     c_bands:  1 eigenvalues not converged
     c_bands:  1 eigenvalues not converged
     c_bands:  1 eigenvalues not converged
     c_bands:  1 eigenvalues not converged
     c_bands:  4 eigenvalues not converged
     c_bands:  1 eigenvalues not converged
     c_bands:  2 eigenvalues not converged
     c_bands:  1 eigenvalues not converged
     c_bands:  3 eigenvalues not converged
     c_bands:  1 eigenvalues not converged
     c_bands:  1 eigenvalues not converged
     c_bands:  1 eigenvalues not converged
     c_bands:  1 eigenvalues not converged
     c_bands:  1 eigenvalues not converged
     c_bands:  1 eigenvalues not converged
     c_bands:  2 eigenvalues not converged
     c_bands:  2 eigenvalues not converged
     c_bands:  3 eigenvalues not converged
     c_bands:  1 eigenvalues not converged
     c_bands:  2 eigenvalues not converged
     c_bands:  3 eigenvalues not converged
     c_bands:  2 eigenvalues not converged
     c_bands:  2 eigenvalues not converged
     c_bands:  1 eigenvalues not converged
     c_bands:  5 eigenvalues not converged
     c_bands:  2 eigenvalues not converged
     c_bands:  3 eigenvalues not converged
     c_bands:  2 eigenvalues not converged
     c_bands:  2 eigenvalues not converged
     c_bands:  3 eigenvalues not converged
     c_bands:  1 eigenvalues not converged
     c_bands:  1 eigenvalues not converged
     c_bands:  1 eigenvalues not converged
     c_bands:  2 eigenvalues not converged
     c_bands:  3 eigenvalues not converged
     c_bands:  3 eigenvalues not converged
     c_bands:  2 eigenvalues not converged
     c_bands:  2 eigenvalues not converged
     c_bands:  4 eigenvalues not converged
     c_bands:  1 eigenvalues not converged
     c_bands:  1 eigenvalues not converged
     c_bands:  1 eigenvalues not converged
     c_bands:  1 eigenvalues not converged
     c_bands:  4 eigenvalues not converged
     c_bands:  1 eigenvalues not converged
     c_bands:  3 eigenvalues not converged
     c_bands:  1 eigenvalues not converged
     c_bands:  1 eigenvalues not converged
     c_bands:  1 eigenvalues not converged
     c_bands:  1 eigenvalues not converged
     c_bands:  2 eigenvalues not converged
     c_bands:  1 eigenvalues not converged
     c_bands:  2 eigenvalues not converged
     ethr =  6.08E-06,  avg # of iterations = 16.0

     total cpu time spent up to now is      193.6 secs

     total energy              =    -731.44614633 Ry
     estimated scf accuracy    <       0.00097084 Ry

     total magnetization       =     0.05 Bohr mag/cell
     absolute magnetization    =     0.28 Bohr mag/cell

     iteration #  6     ecut=    90.00 Ry     beta= 0.40
     Davidson diagonalization with overlap
     c_bands:  1 eigenvalues not converged
     c_bands:  1 eigenvalues not converged
     c_bands:  1 eigenvalues not converged
     c_bands:  4 eigenvalues not converged
     c_bands:  1 eigenvalues not converged
     c_bands:  3 eigenvalues not converged
     c_bands:  1 eigenvalues not converged
     c_bands:  1 eigenvalues not converged
     c_bands:  3 eigenvalues not converged
     c_bands:  1 eigenvalues not converged
     c_bands:  1 eigenvalues not converged
     c_bands:  1 eigenvalues not converged
     c_bands:  3 eigenvalues not converged
     c_bands:  3 eigenvalues not converged
     c_bands:  1 eigenvalues not converged
     c_bands:  1 eigenvalues not converged
     c_bands:  1 eigenvalues not converged
     c_bands:  1 eigenvalues not converged
     c_bands:  3 eigenvalues not converged
     c_bands:  1 eigenvalues not converged
     c_bands:  1 eigenvalues not converged
     c_bands:  2 eigenvalues not converged
     c_bands:  4 eigenvalues not converged
     c_bands:  3 eigenvalues not converged
     c_bands:  1 eigenvalues not converged
     c_bands:  3 eigenvalues not converged
     c_bands:  1 eigenvalues not converged
     c_bands:  1 eigenvalues not converged
     c_bands:  1 eigenvalues not converged
     c_bands:  1 eigenvalues not converged
     c_bands:  2 eigenvalues not converged
     c_bands:  1 eigenvalues not converged
     c_bands:  1 eigenvalues not converged
     c_bands:  1 eigenvalues not converged
     c_bands:  3 eigenvalues not converged
     c_bands:  1 eigenvalues not converged
     ethr =  1.39E-06,  avg # of iterations =  9.5

     total cpu time spent up to now is      221.4 secs

     total energy              =    -731.44652663 Ry
     estimated scf accuracy    <       0.00021833 Ry

     total magnetization       =     0.01 Bohr mag/cell
     absolute magnetization    =     0.13 Bohr mag/cell

     iteration #  7     ecut=    90.00 Ry     beta= 0.40
     Davidson diagonalization with overlap
     c_bands:  1 eigenvalues not converged
     c_bands:  1 eigenvalues not converged
     c_bands:  1 eigenvalues not converged
     c_bands:  1 eigenvalues not converged
     c_bands:  1 eigenvalues not converged
     c_bands:  2 eigenvalues not converged
     c_bands:  1 eigenvalues not converged
     c_bands:  1 eigenvalues not converged
     ethr =  3.12E-07,  avg # of iterations =  4.5

     total cpu time spent up to now is      242.5 secs

     total energy              =    -731.44662857 Ry
     estimated scf accuracy    <       0.00004547 Ry

     total magnetization       =     0.01 Bohr mag/cell
     absolute magnetization    =     0.09 Bohr mag/cell

     iteration #  8     ecut=    90.00 Ry     beta= 0.40
     Davidson diagonalization with overlap
     c_bands:  1 eigenvalues not converged
     ethr =  6.50E-08,  avg # of iterations =  5.5

     total cpu time spent up to now is      266.1 secs

     total energy              =    -731.44666843 Ry
     estimated scf accuracy    <       0.00000695 Ry

     total magnetization       =    -0.00 Bohr mag/cell
     absolute magnetization    =     0.04 Bohr mag/cell

     iteration #  9     ecut=    90.00 Ry     beta= 0.40
     Davidson diagonalization with overlap
     c_bands:  1 eigenvalues not converged
     c_bands:  1 eigenvalues not converged
     c_bands:  1 eigenvalues not converged
     ethr =  9.93E-09,  avg # of iterations =  6.1

     total cpu time spent up to now is      291.3 secs

     total energy              =    -731.44667553 Ry
     estimated scf accuracy    <       0.00000286 Ry

     total magnetization       =    -0.00 Bohr mag/cell
     absolute magnetization    =     0.02 Bohr mag/cell

     iteration # 10     ecut=    90.00 Ry     beta= 0.40
     Davidson diagonalization with overlap
     c_bands:  1 eigenvalues not converged
     c_bands:  1 eigenvalues not converged
     c_bands:  1 eigenvalues not converged
     ethr =  4.08E-09,  avg # of iterations =  4.9

     total cpu time spent up to now is      315.4 secs

     total energy              =    -731.44667792 Ry
     estimated scf accuracy    <       0.00000015 Ry

     total magnetization       =    -0.00 Bohr mag/cell
     absolute magnetization    =     0.01 Bohr mag/cell

     iteration # 11     ecut=    90.00 Ry     beta= 0.40
     Davidson diagonalization with overlap
     c_bands:  1 eigenvalues not converged
     c_bands:  1 eigenvalues not converged
     c_bands:  1 eigenvalues not converged
     ethr =  2.16E-10,  avg # of iterations =  7.7

     total cpu time spent up to now is      345.4 secs

     total energy              =    -731.44667817 Ry
     estimated scf accuracy    <       0.00000008 Ry

     total magnetization       =    -0.00 Bohr mag/cell
     absolute magnetization    =     0.00 Bohr mag/cell

     iteration # 12     ecut=    90.00 Ry     beta= 0.40
     Davidson diagonalization with overlap
     ethr =  1.18E-10,  avg # of iterations =  4.8

     total cpu time spent up to now is      370.0 secs

     total energy              =    -731.44667825 Ry
     estimated scf accuracy    <       0.00000001 Ry

     total magnetization       =    -0.00 Bohr mag/cell
     absolute magnetization    =     0.00 Bohr mag/cell

     iteration # 13     ecut=    90.00 Ry     beta= 0.40
     Davidson diagonalization with overlap
     c_bands:  1 eigenvalues not converged
     ethr =  1.95E-11,  avg # of iterations =  4.9

     total cpu time spent up to now is      392.3 secs

     total energy              =    -731.44667826 Ry
     estimated scf accuracy    <          6.3E-10 Ry

     total magnetization       =    -0.00 Bohr mag/cell
     absolute magnetization    =     0.00 Bohr mag/cell

     iteration # 14     ecut=    90.00 Ry     beta= 0.40
     Davidson diagonalization with overlap
     ethr =  9.05E-13,  avg # of iterations =  7.8

     total cpu time spent up to now is      424.6 secs

     total energy              =    -731.44667826 Ry
     estimated scf accuracy    <          1.6E-09 Ry

     total magnetization       =    -0.00 Bohr mag/cell
     absolute magnetization    =     0.00 Bohr mag/cell

     iteration # 15     ecut=    90.00 Ry     beta= 0.40
     Davidson diagonalization with overlap
     ethr =  9.05E-13,  avg # of iterations =  5.2

     Magnetic moment per site  (integrated on atomic sphere of radius R)
     atom   1 (R=0.238)  charge=  8.6290  magn= -0.0000
     atom   2 (R=0.175)  charge= 14.4905  magn=  0.0000
     atom   3 (R=0.175)  charge= 14.4905  magn=  0.0000
     atom   4 (R=0.175)  charge= 14.4905  magn=  0.0000
     atom   5 (R=0.175)  charge=  2.0398  magn=  0.0000
     atom   6 (R=0.175)  charge=  2.0398  magn=  0.0000

     total cpu time spent up to now is      448.2 secs

     End of self-consistent calculation

     Number of k-points >= 100: set verbosity='high' to print the bands.

     the Fermi energy is    16.6049 ev

!    total energy              =    -731.44667826 Ry
     estimated scf accuracy    <          2.8E-11 Ry
     smearing contrib. (-TS)   =       0.00037745 Ry
     internal energy E=F+TS    =    -731.44705570 Ry

     The total energy is F=E-TS. E is the sum of the following terms:
     one-electron contribution =    -291.59417624 Ry
     hartree contribution      =     181.27557434 Ry
     xc contribution           =     -79.91957127 Ry
     ewald contribution        =    -541.20888253 Ry

     total magnetization       =     0.00 Bohr mag/cell
     absolute magnetization    =     0.00 Bohr mag/cell

     convergence has been achieved in  15 iterations

     Forces acting on atoms (cartesian axes, Ry/au):

     atom    1 type  1   force =     0.00000000    0.00000000   -0.00000000
     atom    2 type  2   force =    -0.00000000   -0.00000000    0.00000000
     atom    3 type  2   force =     0.00000000   -0.00000000    0.00000000
     atom    4 type  2   force =    -0.00000000   -0.00000000    0.00000000
     atom    5 type  3   force =     0.00000000    0.00000000    0.00000000
     atom    6 type  3   force =     0.00000000   -0.00000000    0.00000000

     Total force =     0.000000     Total SCF correction =     0.000000


     Computing stress (Cartesian axis) and pressure

          total   stress  (Ry/bohr**3)                   (kbar)     P=        6.49
  -0.00012252   0.00000000   0.00000000          -18.02        0.00        0.00
   0.00000000  -0.00012252   0.00000000            0.00      -18.02        0.00
   0.00000000   0.00000000   0.00037730            0.00        0.00       55.50


     Writing all to output data dir ./out/larh3si2.save/ :
     XML data file, charge density, pseudopotentials, collected wavefunctions

     init_run     :      6.64s CPU      6.95s WALL (       1 calls)
     electrons    :    428.59s CPU    441.25s WALL (       1 calls)
     forces       :      1.95s CPU      1.97s WALL (       1 calls)
     stress       :      7.67s CPU      7.71s WALL (       1 calls)

     Called by init_run:
     wfcinit      :      6.33s CPU      6.63s WALL (       1 calls)
     potinit      :      0.03s CPU      0.03s WALL (       1 calls)
     hinit0       :      0.20s CPU      0.20s WALL (       1 calls)

     Called by electrons:
     c_bands      :    388.58s CPU    399.84s WALL (      16 calls)
     sum_band     :     39.59s CPU     40.98s WALL (      16 calls)
     v_of_rho     :      0.36s CPU      0.37s WALL (      16 calls)
     mix_rho      :      0.07s CPU      0.07s WALL (      16 calls)

     Called by c_bands:
     init_us_2    :      6.86s CPU      7.06s WALL (    9310 calls)
     cegterg      :    373.48s CPU    384.54s WALL (    4256 calls)

     Called by *egterg:
     cdiaghg      :     29.36s CPU     29.41s WALL (   32330 calls)
     h_psi        :    281.06s CPU    291.74s WALL (   32862 calls)
     g_psi        :      2.75s CPU      2.76s WALL (   28340 calls)

     Called by h_psi:
     h_psi:calbec :     23.92s CPU     24.59s WALL (   32862 calls)
     vloc_psi     :    242.20s CPU    252.01s WALL (   32862 calls)
                                        0.00s GPU  (   32862 calls)
     add_vuspsi   :     13.57s CPU     13.67s WALL (   32862 calls)

     General routines
     calbec       :     30.24s CPU     30.97s WALL (   37384 calls)
     fft          :      0.30s CPU      0.31s WALL (     315 calls)
     ffts         :      0.01s CPU      0.01s WALL (      32 calls)
     fftw         :    259.00s CPU    269.35s WALL ( 1381144 calls)

     Parallel routines

     PWSCF        :   7m25.14s CPU   7m38.43s WALL


   This run was terminated on:   9:29:34  16Jun2026            

=------------------------------------------------------------------------------=
   JOB DONE.
=------------------------------------------------------------------------------=
