
     Program PWSCF v.7.5 starts on 16Jun2026 at  3:18: 7 

     This program is part of the open-source Quantum ESPRESSO suite
     for quantum simulation of materials; please cite
         "P. Giannozzi et al., J. Phys.:Condens. Matter 21 395502 (2009);
         "P. Giannozzi et al., J. Phys.:Condens. Matter 29 465901 (2017);
         "P. Giannozzi et al., J. Chem. Phys. 152 154105 (2020);
          URL http://www.quantum-espresso.org", 
     in publications or presentations arising from this work. More details at
     http://www.quantum-espresso.org/quote

     Parallel version (MPI & OpenMP), running on       6 processor cores
     Number of MPI processes:                 6
     Threads/MPI process:                     1

     MPI processes distributed on     1 nodes
     10638 MiB available memory on the printing compute node when the environment starts

     Reading input from scf.in

     Current dimensions of program PWSCF are:
     Max number of different atomic species (ntypx) = 10
     Max number of k-points (npk) =  40000
     Max angular momentum in pseudopotentials (lmaxx) =  4

     R & G space division:  proc/nbgrp/npool/nimage =       6
     Subspace diagonalization in iterative solution of the eigenvalue problem:
     a serial algorithm will be used


     Parallelization info
     --------------------
     sticks:   dense  smooth     PW     G-vecs:    dense   smooth      PW
     Min         413     413    114                13347    13347    1990
     Max         414     414    115                13348    13348    1991
     Sum        2479    2479    685                80083    80083   11941

     Using Slab Decomposition



     bravais-lattice index     =            4
     lattice parameter (alat)  =       9.9760  a.u.
     unit-cell volume          =     693.6907 (a.u.)^3
     number of atoms/cell      =            6
     number of atomic types    =            2
     number of electrons       =        92.80
     number of Kohn-Sham states=           56
     kinetic-energy cutoff     =      90.0000  Ry
     charge density cutoff     =     360.0000  Ry
     scf convergence threshold =      1.0E-10
     mixing beta               =       0.4000
     number of iterations used =            8  plain     mixing
     Exchange-correlation= PBE
                           (   1   4   3   4   0   0   0)

     celldm(1)=   9.976000  celldm(2)=   0.000000  celldm(3)=   0.806800
     celldm(4)=   0.000000  celldm(5)=   0.000000  celldm(6)=   0.000000

     crystal axes: (cart. coord. in units of alat)
               a(1) = (   1.000000   0.000000   0.000000 )  
               a(2) = (  -0.500000   0.866025   0.000000 )  
               a(3) = (   0.000000   0.000000   0.806800 )  

     reciprocal axes: (cart. coord. in units 2 pi/alat)
               b(1) = (  1.000000  0.577350 -0.000000 )  
               b(2) = (  0.000000  1.154701  0.000000 )  
               b(3) = (  0.000000 -0.000000  1.239465 )  


     PseudoPot. # 1 for Co read from file:
     ./pseudo/Co_ONCV_PBE_sr.upf
     MD5 check sum: 04640e31e65e5bce9f0417487be359f7
     Pseudo is Norm-conserving, Zval = 17.0
     Generated using ONCVPSP code by D. R. Hamann
     Using radial grid of  602 points,  6 beta functions with: 
                l(1) =   0
                l(2) =   0
                l(3) =   1
                l(4) =   1
                l(5) =   2
                l(6) =   2

     PseudoPot. # 2 for Sn read from file:
     ./pseudo/Sn_ONCV_PBE_sr.upf
     MD5 check sum: 6680f7ee4d83b53e0fcd4167fcb72813
     Pseudo is Norm-conserving, Zval = 14.0
     Generated using ONCVPSP code by D. R. Hamann
     Using radial grid of  602 points,  6 beta functions with: 
                l(1) =   0
                l(2) =   0
                l(3) =   1
                l(4) =   1
                l(5) =   2
                l(6) =   2

     atomic species   valence    mass     pseudopotential
     Co               17.00    58.93300     Co( 1.00)
     Sn               14.00   118.71000     Sn( 1.00)

     Starting magnetic structure 
     atomic species   magnetization
     Co              0.300
     Sn              0.000

     24 Sym. Ops., with inversion, found



   Cartesian axes

     site n.     atom                  positions (alat units)
         1        Co     tau(   1) = (   0.5000000   0.0000000   0.0000000  )
         2        Co     tau(   2) = (  -0.2500000   0.4330127   0.0000000  )
         3        Co     tau(   3) = (   0.2500000   0.4330127   0.0000000  )
         4        Sn     tau(   4) = (   0.0000000   0.0000000   0.0000000  )
         5        Sn     tau(   5) = (  -0.0000005   0.5773506   0.4034000  )
         6        Sn     tau(   6) = (   0.5000005   0.2886748   0.4034000  )

     number of k points=   133  Methfessel-Paxton smearing, width (Ry)=  0.0200

     Number of k-points >= 100: set verbosity='high' to print them.

     Dense  grid:    80083 G-vectors     FFT dimensions: (  64,  64,  50)

     Estimated max dynamical RAM per process >     406.45 MB

     Estimated total dynamical RAM >       2.38 GB
     Generating pointlists ...
     new r_m :   0.2046 (alat units)  2.0413 (a.u.) for type    1
     new r_m :   0.2046 (alat units)  2.0413 (a.u.) for type    2

     Initial potential from superposition of free atoms

     starting charge      92.6277, renormalised to      92.8000
     Starting wfcs are random

     total cpu time spent up to now is        7.3 secs

     per-process dynamical memory:   422.0 Mb

     Self-consistent Calculation

     iteration #  1     ecut=    90.00 Ry     beta= 0.40
     Davidson diagonalization with overlap
     ethr =  1.00E-02,  avg # of iterations = 10.9

     total cpu time spent up to now is       79.2 secs

     total energy              =   -1174.70939502 Ry
     estimated scf accuracy    <       1.68011417 Ry

     total magnetization       =     4.36 Bohr mag/cell
     absolute magnetization    =     5.37 Bohr mag/cell

     iteration #  2     ecut=    90.00 Ry     beta= 0.40
     Davidson diagonalization with overlap
     ethr =  1.81E-03,  avg # of iterations =  2.0

     total cpu time spent up to now is       99.4 secs

     total energy              =   -1174.75012653 Ry
     estimated scf accuracy    <       1.57878702 Ry

     total magnetization       =     6.66 Bohr mag/cell
     absolute magnetization    =     7.38 Bohr mag/cell

     iteration #  3     ecut=    90.00 Ry     beta= 0.40
     Davidson diagonalization with overlap
     ethr =  1.70E-03,  avg # of iterations =  2.0

     total cpu time spent up to now is      118.5 secs

     total energy              =   -1175.15347671 Ry
     estimated scf accuracy    <       0.63300766 Ry

     total magnetization       =     3.86 Bohr mag/cell
     absolute magnetization    =     4.88 Bohr mag/cell

     iteration #  4     ecut=    90.00 Ry     beta= 0.40
     Davidson diagonalization with overlap
     ethr =  6.82E-04,  avg # of iterations =  1.5

     total cpu time spent up to now is      136.7 secs

     total energy              =   -1175.22692206 Ry
     estimated scf accuracy    <       0.02685150 Ry

     total magnetization       =     3.46 Bohr mag/cell
     absolute magnetization    =     4.39 Bohr mag/cell

     iteration #  5     ecut=    90.00 Ry     beta= 0.40
     Davidson diagonalization with overlap
     ethr =  2.89E-05,  avg # of iterations =  3.8

     total cpu time spent up to now is      158.8 secs

     total energy              =   -1175.24423752 Ry
     estimated scf accuracy    <       0.00951931 Ry

     total magnetization       =     2.50 Bohr mag/cell
     absolute magnetization    =     3.39 Bohr mag/cell

     iteration #  6     ecut=    90.00 Ry     beta= 0.40
     Davidson diagonalization with overlap
     ethr =  1.03E-05,  avg # of iterations =  2.9

     total cpu time spent up to now is      179.6 secs

     total energy              =   -1175.24672824 Ry
     estimated scf accuracy    <       0.00517419 Ry

     total magnetization       =     1.83 Bohr mag/cell
     absolute magnetization    =     2.61 Bohr mag/cell

     iteration #  7     ecut=    90.00 Ry     beta= 0.40
     Davidson diagonalization with overlap
     ethr =  5.58E-06,  avg # of iterations =  3.5

     total cpu time spent up to now is      203.7 secs

     total energy              =   -1175.26439078 Ry
     estimated scf accuracy    <       0.00464654 Ry

     total magnetization       =     0.63 Bohr mag/cell
     absolute magnetization    =     1.10 Bohr mag/cell

     iteration #  8     ecut=    90.00 Ry     beta= 0.40
     Davidson diagonalization with overlap
     ethr =  5.01E-06,  avg # of iterations =  1.0

     total cpu time spent up to now is      220.6 secs

     total energy              =   -1175.26635462 Ry
     estimated scf accuracy    <       0.00362299 Ry

     total magnetization       =     0.56 Bohr mag/cell
     absolute magnetization    =     0.98 Bohr mag/cell

     iteration #  9     ecut=    90.00 Ry     beta= 0.40
     Davidson diagonalization with overlap
     ethr =  3.90E-06,  avg # of iterations =  2.1

     total cpu time spent up to now is      240.2 secs

     total energy              =   -1175.26741546 Ry
     estimated scf accuracy    <       0.00102463 Ry

     total magnetization       =     0.47 Bohr mag/cell
     absolute magnetization    =     0.71 Bohr mag/cell

     iteration # 10     ecut=    90.00 Ry     beta= 0.40
     Davidson diagonalization with overlap
     ethr =  1.10E-06,  avg # of iterations =  2.1

     total cpu time spent up to now is      259.4 secs

     total energy              =   -1175.26740648 Ry
     estimated scf accuracy    <       0.00012976 Ry

     total magnetization       =     0.42 Bohr mag/cell
     absolute magnetization    =     0.58 Bohr mag/cell

     iteration # 11     ecut=    90.00 Ry     beta= 0.40
     Davidson diagonalization with overlap
     ethr =  1.40E-07,  avg # of iterations =  3.9

     total cpu time spent up to now is      284.6 secs

     total energy              =   -1175.26786133 Ry
     estimated scf accuracy    <       0.00010537 Ry

     total magnetization       =     0.29 Bohr mag/cell
     absolute magnetization    =     0.36 Bohr mag/cell

     iteration # 12     ecut=    90.00 Ry     beta= 0.40
     Davidson diagonalization with overlap
     ethr =  1.14E-07,  avg # of iterations =  1.0

     total cpu time spent up to now is      301.5 secs

     total energy              =   -1175.26785860 Ry
     estimated scf accuracy    <       0.00004668 Ry

     total magnetization       =     0.30 Bohr mag/cell
     absolute magnetization    =     0.36 Bohr mag/cell

     iteration # 13     ecut=    90.00 Ry     beta= 0.40
     Davidson diagonalization with overlap
     ethr =  5.03E-08,  avg # of iterations =  2.0

     total cpu time spent up to now is      321.0 secs

     total energy              =   -1175.26788191 Ry
     estimated scf accuracy    <       0.00000701 Ry

     total magnetization       =     0.33 Bohr mag/cell
     absolute magnetization    =     0.40 Bohr mag/cell

     iteration # 14     ecut=    90.00 Ry     beta= 0.40
     Davidson diagonalization with overlap
     ethr =  7.55E-09,  avg # of iterations =  2.2

     total cpu time spent up to now is      341.0 secs

     total energy              =   -1175.26788905 Ry
     estimated scf accuracy    <       0.00000132 Ry

     total magnetization       =     0.32 Bohr mag/cell
     absolute magnetization    =     0.38 Bohr mag/cell

     iteration # 15     ecut=    90.00 Ry     beta= 0.40
     Davidson diagonalization with overlap
     ethr =  1.42E-09,  avg # of iterations =  2.0

     total cpu time spent up to now is      361.6 secs

     total energy              =   -1175.26789019 Ry
     estimated scf accuracy    <       0.00000005 Ry

     total magnetization       =     0.33 Bohr mag/cell
     absolute magnetization    =     0.38 Bohr mag/cell

     iteration # 16     ecut=    90.00 Ry     beta= 0.40
     Davidson diagonalization with overlap
     ethr =  5.06E-11,  avg # of iterations =  2.8

     total cpu time spent up to now is      383.5 secs

     total energy              =   -1175.26789022 Ry
     estimated scf accuracy    <       0.00000001 Ry

     total magnetization       =     0.33 Bohr mag/cell
     absolute magnetization    =     0.39 Bohr mag/cell

     iteration # 17     ecut=    90.00 Ry     beta= 0.40
     Davidson diagonalization with overlap
     ethr =  1.48E-11,  avg # of iterations =  2.2

     total cpu time spent up to now is      403.9 secs

     total energy              =   -1175.26789023 Ry
     estimated scf accuracy    <          2.2E-09 Ry

     total magnetization       =     0.33 Bohr mag/cell
     absolute magnetization    =     0.39 Bohr mag/cell

     iteration # 18     ecut=    90.00 Ry     beta= 0.40
     Davidson diagonalization with overlap
     ethr =  2.41E-12,  avg # of iterations =  2.9

     total cpu time spent up to now is      426.2 secs

     total energy              =   -1175.26789023 Ry
     estimated scf accuracy    <          5.2E-10 Ry

     total magnetization       =     0.33 Bohr mag/cell
     absolute magnetization    =     0.39 Bohr mag/cell

     iteration # 19     ecut=    90.00 Ry     beta= 0.40
     Davidson diagonalization with overlap
     ethr =  5.55E-13,  avg # of iterations =  2.3

     Magnetic moment per site  (integrated on atomic sphere of radius R)
     atom   1 (R=0.205)  charge= 15.9611  magn=  0.1167
     atom   2 (R=0.205)  charge= 15.9611  magn=  0.1167
     atom   3 (R=0.205)  charge= 15.9611  magn=  0.1167
     atom   4 (R=0.205)  charge= 11.1791  magn= -0.0046
     atom   5 (R=0.205)  charge= 11.2333  magn= -0.0025
     atom   6 (R=0.205)  charge= 11.2333  magn= -0.0025

     total cpu time spent up to now is      447.9 secs

     End of self-consistent calculation

     Number of k-points >= 100: set verbosity='high' to print the bands.

     the Fermi energy is    16.5876 ev

!    total energy              =   -1175.26789023 Ry
     estimated scf accuracy    <          6.2E-11 Ry
     smearing contrib. (-TS)   =       0.00332244 Ry
     internal energy E=F+TS    =   -1175.27121267 Ry

     The total energy is F=E-TS. E is the sum of the following terms:
     one-electron contribution =    -590.05338426 Ry
     hartree contribution      =     348.03816211 Ry
     xc contribution           =    -127.20268034 Ry
     ewald contribution        =    -806.05331018 Ry

     total magnetization       =     0.33 Bohr mag/cell
     absolute magnetization    =     0.39 Bohr mag/cell

     convergence has been achieved in  19 iterations

     Forces acting on atoms (cartesian axes, Ry/au):

     atom    1 type  1   force =     0.00000000    0.00000000    0.00000000
     atom    2 type  1   force =     0.00000000   -0.00000000    0.00000000
     atom    3 type  1   force =    -0.00000000    0.00000000    0.00000000
     atom    4 type  2   force =     0.00000000    0.00000000    0.00000000
     atom    5 type  2   force =    -0.00000000   -0.00000000    0.00000000
     atom    6 type  2   force =     0.00000000    0.00000000    0.00000000

     Total force =     0.000000     Total SCF correction =     0.000000


     Computing stress (Cartesian axis) and pressure

          total   stress  (Ry/bohr**3)                   (kbar)     P=      -62.51
  -0.00039234  -0.00000000   0.00000000          -57.71       -0.00        0.00
  -0.00000000  -0.00039234   0.00000000           -0.00      -57.71        0.00
   0.00000000   0.00000000  -0.00049018            0.00        0.00      -72.11


     Writing all to output data dir ./out/cosn.save/ :
     XML data file, charge density, pseudopotentials, collected wavefunctions

     init_run     :      6.98s CPU      7.28s WALL (       1 calls)
     electrons    :    423.57s CPU    440.62s WALL (       1 calls)
     forces       :      2.50s CPU      2.52s WALL (       1 calls)
     stress       :      8.96s CPU      9.03s WALL (       1 calls)

     Called by init_run:
     wfcinit      :      6.76s CPU      7.06s WALL (       1 calls)
     potinit      :      0.02s CPU      0.03s WALL (       1 calls)
     hinit0       :      0.11s CPU      0.11s WALL (       1 calls)

     Called by electrons:
     c_bands      :    379.13s CPU    393.72s WALL (      19 calls)
     sum_band     :     43.98s CPU     46.43s WALL (      19 calls)
     v_of_rho     :      0.36s CPU      0.38s WALL (      20 calls)
     mix_rho      :      0.10s CPU      0.10s WALL (      19 calls)

     Called by c_bands:
     init_us_2    :      8.99s CPU      9.12s WALL (   10906 calls)
     cegterg      :    358.09s CPU    372.58s WALL (    5054 calls)

     Called by *egterg:
     cdiaghg      :     33.17s CPU     33.22s WALL (   19239 calls)
     h_psi        :    243.09s CPU    257.05s WALL (   19505 calls)
     g_psi        :      2.54s CPU      2.55s WALL (   14185 calls)

     Called by h_psi:
     h_psi:calbec :     24.73s CPU     25.60s WALL (   19505 calls)
     vloc_psi     :    203.06s CPU    215.98s WALL (   19505 calls)
                                        0.00s GPU  (   19505 calls)
     add_vuspsi   :     13.55s CPU     13.61s WALL (   19505 calls)

     General routines
     calbec       :     32.51s CPU     33.47s WALL (   24027 calls)
     fft          :      0.16s CPU      0.16s WALL (     389 calls)
     ffts         :      0.01s CPU      0.01s WALL (      38 calls)
     fftw         :    214.70s CPU    228.22s WALL ( 1805256 calls)

     Parallel routines

     PWSCF        :   7m22.46s CPU   7m40.33s WALL


   This run was terminated on:   3:25:48  16Jun2026            

=------------------------------------------------------------------------------=
   JOB DONE.
=------------------------------------------------------------------------------=
Note: The following floating-point exceptions are signalling: IEEE_DENORMAL
Note: The following floating-point exceptions are signalling: IEEE_DENORMAL
Note: The following floating-point exceptions are signalling: IEEE_DENORMAL
Note: The following floating-point exceptions are signalling: IEEE_INVALID_FLAG IEEE_DENORMAL
