
     Program PWSCF v.6.7MaX starts on 15Jun2026 at 16: 1:18 

     This program is part of the open-source Quantum ESPRESSO suite
     for quantum simulation of materials; please cite
         "P. Giannozzi et al., J. Phys.:Condens. Matter 21 395502 (2009);
         "P. Giannozzi et al., J. Phys.:Condens. Matter 29 465901 (2017);
          URL http://www.quantum-espresso.org", 
     in publications or presentations arising from this work. More details at
     http://www.quantum-espresso.org/quote

     Parallel version (MPI), running on    32 processors

     MPI processes distributed on     1 nodes
     R & G space division:  proc/nbgrp/npool/nimage =      32
     Reading input from scf.in

     Current dimensions of program PWSCF are:
     Max number of different atomic species (ntypx) = 10
     Max number of k-points (npk) =  40000
     Max angular momentum in pseudopotentials (lmaxx) =  3
     Message from routine read_pp_mesh:
     mesh size missing, using the one in header
     Message from routine read_pp_mesh:
     mesh size missing, using the one in header

     Subspace diagonalization in iterative solution of the eigenvalue problem:
     one sub-group per band group will be used
     scalapack distributed-memory algorithm (size of sub-group:  5*  5 procs)


     Parallelization info
     --------------------
     sticks:   dense  smooth     PW     G-vecs:    dense   smooth      PW
     Min          77      77     21                 2501     2501     371
     Max          78      78     22                 2504     2504     376
     Sum        2479    2479    685                80083    80083   11941



     bravais-lattice index     =            4
     lattice parameter (alat)  =       9.9760  a.u.
     unit-cell volume          =     693.6907 (a.u.)^3
     number of atoms/cell      =            6
     number of atomic types    =            2
     number of electrons       =        93.00
     number of Kohn-Sham states=           56
     kinetic-energy cutoff     =      90.0000  Ry
     charge density cutoff     =     360.0000  Ry
     scf convergence threshold =      1.0E-10
     mixing beta               =       0.4000
     number of iterations used =            8  plain     mixing
     Exchange-correlation= PBE
                           (   1   4   3   4   0   0   0)

     celldm(1)=   9.976000  celldm(2)=   0.000000  celldm(3)=   0.806800
     celldm(4)=   0.000000  celldm(5)=   0.000000  celldm(6)=   0.000000

     crystal axes: (cart. coord. in units of alat)
               a(1) = (   1.000000   0.000000   0.000000 )  
               a(2) = (  -0.500000   0.866025   0.000000 )  
               a(3) = (   0.000000   0.000000   0.806800 )  

     reciprocal axes: (cart. coord. in units 2 pi/alat)
               b(1) = (  1.000000  0.577350 -0.000000 )  
               b(2) = (  0.000000  1.154701  0.000000 )  
               b(3) = (  0.000000 -0.000000  1.239465 )  


     PseudoPot. # 1 for Co read from file:
     ./pseudo/Co_ONCV_PBE_sr.upf
     MD5 check sum: 04640e31e65e5bce9f0417487be359f7
     Pseudo is Norm-conserving, Zval = 17.0
     Generated using ONCVPSP code by D. R. Hamann
     Using radial grid of  602 points,  6 beta functions with: 
                l(1) =   0
                l(2) =   0
                l(3) =   1
                l(4) =   1
                l(5) =   2
                l(6) =   2

     PseudoPot. # 2 for Sn read from file:
     ./pseudo/Sn_ONCV_PBE_sr.upf
     MD5 check sum: 6680f7ee4d83b53e0fcd4167fcb72813
     Pseudo is Norm-conserving, Zval = 14.0
     Generated using ONCVPSP code by D. R. Hamann
     Using radial grid of  602 points,  6 beta functions with: 
                l(1) =   0
                l(2) =   0
                l(3) =   1
                l(4) =   1
                l(5) =   2
                l(6) =   2

     atomic species   valence    mass     pseudopotential
        Co            17.00    58.93300     Co( 1.00)
        Sn            14.00   118.71000     Sn( 1.00)

     Starting magnetic structure 
     atomic species   magnetization
        Co           0.300
        Sn           0.000

     24 Sym. Ops., with inversion, found



   Cartesian axes

     site n.     atom                  positions (alat units)
         1           Co  tau(   1) = (   0.5000000   0.0000000   0.0000000  )
         2           Co  tau(   2) = (  -0.2500000   0.4330127   0.0000000  )
         3           Co  tau(   3) = (   0.2500000   0.4330127   0.0000000  )
         4           Sn  tau(   4) = (   0.0000000   0.0000000   0.0000000  )
         5           Sn  tau(   5) = (  -0.0000005   0.5773506   0.4034000  )
         6           Sn  tau(   6) = (   0.5000005   0.2886748   0.4034000  )

     number of k points=   133  Methfessel-Paxton smearing, width (Ry)=  0.0200

     Number of k-points >= 100: set verbosity='high' to print them.

     Dense  grid:    80083 G-vectors     FFT dimensions: (  64,  64,  50)

     Estimated max dynamical RAM per process >      78.68 MB

     Estimated total dynamical RAM >       2.46 GB
     Generating pointlists ...
     new r_m :   0.2046 (alat units)  2.0413 (a.u.) for type    1
     new r_m :   0.2046 (alat units)  2.0413 (a.u.) for type    2

     Initial potential from superposition of free atoms

     starting charge   92.62773, renormalised to   93.00000
     Starting wfcs are random

     total cpu time spent up to now is        5.5 secs

     Self-consistent Calculation

     iteration #  1     ecut=    90.00 Ry     beta= 0.40
     Davidson diagonalization with overlap
     ethr =  1.00E-02,  avg # of iterations = 10.9

     total cpu time spent up to now is       82.4 secs

     total energy              =   -1174.54813657 Ry
     estimated scf accuracy    <       1.43562523 Ry

     total magnetization       =     4.56 Bohr mag/cell
     absolute magnetization    =     5.57 Bohr mag/cell

     iteration #  2     ecut=    90.00 Ry     beta= 0.40
     Davidson diagonalization with overlap
     ethr =  1.54E-03,  avg # of iterations =  2.0

     total cpu time spent up to now is       99.7 secs

     total energy              =   -1174.59858858 Ry
     estimated scf accuracy    <       0.98460566 Ry

     total magnetization       =     6.21 Bohr mag/cell
     absolute magnetization    =     6.98 Bohr mag/cell

     iteration #  3     ecut=    90.00 Ry     beta= 0.40
     Davidson diagonalization with overlap
     ethr =  1.06E-03,  avg # of iterations =  2.0

     total cpu time spent up to now is      116.8 secs

     total energy              =   -1174.89714289 Ry
     estimated scf accuracy    <       0.73894383 Ry

     total magnetization       =     3.65 Bohr mag/cell
     absolute magnetization    =     4.69 Bohr mag/cell

     iteration #  4     ecut=    90.00 Ry     beta= 0.40
     Davidson diagonalization with overlap
     ethr =  7.95E-04,  avg # of iterations =  1.5

     total cpu time spent up to now is      132.3 secs

     total energy              =   -1174.97755553 Ry
     estimated scf accuracy    <       0.03380403 Ry

     total magnetization       =     3.49 Bohr mag/cell
     absolute magnetization    =     4.39 Bohr mag/cell

     iteration #  5     ecut=    90.00 Ry     beta= 0.40
     Davidson diagonalization with overlap
     ethr =  3.63E-05,  avg # of iterations =  3.6

     total cpu time spent up to now is      152.1 secs

     total energy              =   -1174.99761984 Ry
     estimated scf accuracy    <       0.01016808 Ry

     total magnetization       =     2.43 Bohr mag/cell
     absolute magnetization    =     3.30 Bohr mag/cell

     iteration #  6     ecut=    90.00 Ry     beta= 0.40
     Davidson diagonalization with overlap
     ethr =  1.09E-05,  avg # of iterations =  2.8

     total cpu time spent up to now is      169.9 secs

     total energy              =   -1174.99652654 Ry
     estimated scf accuracy    <       0.00694863 Ry

     total magnetization       =     1.98 Bohr mag/cell
     absolute magnetization    =     2.78 Bohr mag/cell

     iteration #  7     ecut=    90.00 Ry     beta= 0.40
     Davidson diagonalization with overlap
     ethr =  7.47E-06,  avg # of iterations =  3.6

     total cpu time spent up to now is      192.8 secs

     total energy              =   -1175.01749228 Ry
     estimated scf accuracy    <       0.00517032 Ry

     total magnetization       =     0.58 Bohr mag/cell
     absolute magnetization    =     1.07 Bohr mag/cell

     iteration #  8     ecut=    90.00 Ry     beta= 0.40
     Davidson diagonalization with overlap
     ethr =  5.56E-06,  avg # of iterations =  1.0

     total cpu time spent up to now is      207.3 secs

     total energy              =   -1175.02021908 Ry
     estimated scf accuracy    <       0.00578162 Ry

     total magnetization       =     0.61 Bohr mag/cell
     absolute magnetization    =     1.10 Bohr mag/cell

     iteration #  9     ecut=    90.00 Ry     beta= 0.40
     Davidson diagonalization with overlap
     ethr =  5.56E-06,  avg # of iterations =  2.0

     total cpu time spent up to now is      227.7 secs

     total energy              =   -1175.02269380 Ry
     estimated scf accuracy    <       0.00306486 Ry

     total magnetization       =     0.34 Bohr mag/cell
     absolute magnetization    =     0.58 Bohr mag/cell

     iteration # 10     ecut=    90.00 Ry     beta= 0.40
     Davidson diagonalization with overlap
     ethr =  3.30E-06,  avg # of iterations =  1.5

     total cpu time spent up to now is      243.4 secs

     total energy              =   -1175.02280289 Ry
     estimated scf accuracy    <       0.00060943 Ry

     total magnetization       =     0.33 Bohr mag/cell
     absolute magnetization    =     0.54 Bohr mag/cell

     iteration # 11     ecut=    90.00 Ry     beta= 0.40
     Davidson diagonalization with overlap
     ethr =  6.55E-07,  avg # of iterations =  3.0

     total cpu time spent up to now is      263.9 secs

     total energy              =   -1175.02323071 Ry
     estimated scf accuracy    <       0.00016800 Ry

     total magnetization       =     0.17 Bohr mag/cell
     absolute magnetization    =     0.24 Bohr mag/cell

     iteration # 12     ecut=    90.00 Ry     beta= 0.40
     Davidson diagonalization with overlap
     ethr =  1.81E-07,  avg # of iterations =  3.1

     total cpu time spent up to now is      284.5 secs

     total energy              =   -1175.02353192 Ry
     estimated scf accuracy    <       0.00018263 Ry

     total magnetization       =     0.05 Bohr mag/cell
     absolute magnetization    =     0.10 Bohr mag/cell

     iteration # 13     ecut=    90.00 Ry     beta= 0.40
     Davidson diagonalization with overlap
     ethr =  1.81E-07,  avg # of iterations =  1.0

     total cpu time spent up to now is      299.1 secs

     total energy              =   -1175.02356321 Ry
     estimated scf accuracy    <       0.00008890 Ry

     total magnetization       =     0.07 Bohr mag/cell
     absolute magnetization    =     0.11 Bohr mag/cell

     iteration # 14     ecut=    90.00 Ry     beta= 0.40
     Davidson diagonalization with overlap
     ethr =  9.56E-08,  avg # of iterations =  2.0

     total cpu time spent up to now is      316.4 secs

     total energy              =   -1175.02359706 Ry
     estimated scf accuracy    <       0.00001760 Ry

     total magnetization       =     0.12 Bohr mag/cell
     absolute magnetization    =     0.14 Bohr mag/cell

     iteration # 15     ecut=    90.00 Ry     beta= 0.40
     Davidson diagonalization with overlap
     ethr =  1.89E-08,  avg # of iterations =  2.0

     total cpu time spent up to now is      334.0 secs

     total energy              =   -1175.02360301 Ry
     estimated scf accuracy    <       0.00000159 Ry

     total magnetization       =     0.13 Bohr mag/cell
     absolute magnetization    =     0.16 Bohr mag/cell

     iteration # 16     ecut=    90.00 Ry     beta= 0.40
     Davidson diagonalization with overlap
     ethr =  1.71E-09,  avg # of iterations =  3.1

     total cpu time spent up to now is      356.7 secs

     total energy              =   -1175.02360652 Ry
     estimated scf accuracy    <       0.00000056 Ry

     total magnetization       =     0.12 Bohr mag/cell
     absolute magnetization    =     0.15 Bohr mag/cell

     iteration # 17     ecut=    90.00 Ry     beta= 0.40
     Davidson diagonalization with overlap
     ethr =  6.05E-10,  avg # of iterations =  2.0

     total cpu time spent up to now is      374.8 secs

     total energy              =   -1175.02360692 Ry
     estimated scf accuracy    <       0.00000026 Ry

     total magnetization       =     0.13 Bohr mag/cell
     absolute magnetization    =     0.15 Bohr mag/cell

     iteration # 18     ecut=    90.00 Ry     beta= 0.40
     Davidson diagonalization with overlap
     ethr =  2.76E-10,  avg # of iterations =  2.1

     total cpu time spent up to now is      393.2 secs

     total energy              =   -1175.02360731 Ry
     estimated scf accuracy    <       0.00000016 Ry

     total magnetization       =     0.12 Bohr mag/cell
     absolute magnetization    =     0.15 Bohr mag/cell

     iteration # 19     ecut=    90.00 Ry     beta= 0.40
     Davidson diagonalization with overlap
     ethr =  1.67E-10,  avg # of iterations =  2.0

     total cpu time spent up to now is      410.7 secs

     total energy              =   -1175.02360691 Ry
     estimated scf accuracy    <       0.00000014 Ry

     total magnetization       =     0.12 Bohr mag/cell
     absolute magnetization    =     0.15 Bohr mag/cell

     iteration # 20     ecut=    90.00 Ry     beta= 0.40
     Davidson diagonalization with overlap
     ethr =  1.53E-10,  avg # of iterations =  3.4

     total cpu time spent up to now is      433.0 secs

     total energy              =   -1175.02360761 Ry
     estimated scf accuracy    <       0.00000005 Ry

     total magnetization       =     0.12 Bohr mag/cell
     absolute magnetization    =     0.14 Bohr mag/cell

     iteration # 21     ecut=    90.00 Ry     beta= 0.40
     Davidson diagonalization with overlap
     ethr =  5.56E-11,  avg # of iterations =  3.7

     total cpu time spent up to now is      456.3 secs

     total energy              =   -1175.02360776 Ry
     estimated scf accuracy    <       0.00000003 Ry

     total magnetization       =     0.11 Bohr mag/cell
     absolute magnetization    =     0.13 Bohr mag/cell

     iteration # 22     ecut=    90.00 Ry     beta= 0.40
     Davidson diagonalization with overlap
     ethr =  3.18E-11,  avg # of iterations =  4.0

     total cpu time spent up to now is      482.5 secs

     total energy              =   -1175.02360647 Ry
     estimated scf accuracy    <       0.00000002 Ry

     total magnetization       =     0.10 Bohr mag/cell
     absolute magnetization    =     0.12 Bohr mag/cell

     iteration # 23     ecut=    90.00 Ry     beta= 0.40
     Davidson diagonalization with overlap
     ethr =  1.64E-11,  avg # of iterations =  4.8

     total cpu time spent up to now is      511.4 secs

     total energy              =   -1175.02360849 Ry
     estimated scf accuracy    <          1.2E-09 Ry

     total magnetization       =     0.09 Bohr mag/cell
     absolute magnetization    =     0.11 Bohr mag/cell

     iteration # 24     ecut=    90.00 Ry     beta= 0.40
     Davidson diagonalization with overlap
     ethr =  1.31E-12,  avg # of iterations =  4.1

     total cpu time spent up to now is      537.2 secs

     total energy              =   -1175.02360850 Ry
     estimated scf accuracy    <          3.9E-10 Ry

     total magnetization       =     0.09 Bohr mag/cell
     absolute magnetization    =     0.11 Bohr mag/cell

     iteration # 25     ecut=    90.00 Ry     beta= 0.40
     Davidson diagonalization with overlap
     ethr =  4.21E-13,  avg # of iterations =  4.1

     Magnetic moment per site:
     atom:    1    charge:   15.9804    magn:    0.0327    constr:    0.0000
     atom:    2    charge:   15.9804    magn:    0.0327    constr:    0.0000
     atom:    3    charge:   15.9804    magn:    0.0327    constr:    0.0000
     atom:    4    charge:   11.1921    magn:   -0.0013    constr:    0.0000
     atom:    5    charge:   11.2460    magn:   -0.0007    constr:    0.0000
     atom:    6    charge:   11.2460    magn:   -0.0007    constr:    0.0000

     total cpu time spent up to now is      563.5 secs

     End of self-consistent calculation

     Number of k-points >= 100: set verbosity='high' to print the bands.

     the Fermi energy is    16.6482 ev

!    total energy              =   -1175.02360852 Ry
     estimated scf accuracy    <          4.2E-11 Ry
     smearing contrib. (-TS)   =       0.00401666 Ry
     internal energy E=F+TS    =   -1175.02762517 Ry

     The total energy is F=E-TS. E is the sum of the following terms:
     one-electron contribution =    -589.82468400 Ry
     hartree contribution      =     348.24785934 Ry
     xc contribution           =    -127.39749034 Ry
     ewald contribution        =    -806.05331018 Ry

     total magnetization       =     0.09 Bohr mag/cell
     absolute magnetization    =     0.11 Bohr mag/cell

     convergence has been achieved in  25 iterations

     Forces acting on atoms (cartesian axes, Ry/au):

     atom    1 type  1   force =    -0.00000000    0.00000000    0.00000000
     atom    2 type  1   force =     0.00000000   -0.00000000   -0.00000000
     atom    3 type  1   force =    -0.00000000   -0.00000000    0.00000000
     atom    4 type  2   force =     0.00000000   -0.00000000   -0.00000000
     atom    5 type  2   force =     0.00000000    0.00000000    0.00000000
     atom    6 type  2   force =     0.00000000   -0.00000000   -0.00000000

     Total force =     0.000000     Total SCF correction =     0.000000


     Computing stress (Cartesian axis) and pressure

          total   stress  (Ry/bohr**3)                   (kbar)     P=        0.73
   0.00004819   0.00000000   0.00000000            7.09        0.00        0.00
   0.00000000   0.00004819   0.00000000            0.00        7.09        0.00
   0.00000000   0.00000000  -0.00008146            0.00        0.00      -11.98


     Writing output data file ./out/cosn.save/

     init_run     :      5.08s CPU      5.49s WALL (       1 calls)
     electrons    :    518.69s CPU    558.02s WALL (       1 calls)
     forces       :      2.91s CPU      3.09s WALL (       1 calls)
     stress       :      3.26s CPU      3.37s WALL (       1 calls)

     Called by init_run:
     wfcinit      :      5.02s CPU      5.41s WALL (       1 calls)
     potinit      :      0.02s CPU      0.03s WALL (       1 calls)
     hinit0       :      0.02s CPU      0.02s WALL (       1 calls)

     Called by electrons:
     c_bands      :    490.17s CPU    526.41s WALL (      25 calls)
     sum_band     :     28.33s CPU     31.38s WALL (      25 calls)
     v_of_rho     :      0.14s CPU      0.17s WALL (      26 calls)
     mix_rho      :      0.04s CPU      0.04s WALL (      25 calls)

     Called by c_bands:
     init_us_2    :      1.53s CPU      1.62s WALL (   14098 calls)
     cegterg      :    482.28s CPU    518.03s WALL (    6650 calls)

     Called by *egterg:
     cdiaghg      :     98.23s CPU    103.37s WALL (   26713 calls)
     h_psi        :    221.47s CPU    240.35s WALL (   26979 calls)
     g_psi        :      1.25s CPU      1.27s WALL (   20063 calls)

     Called by h_psi:
     h_psi:calbec :     41.81s CPU     45.59s WALL (   26979 calls)
     vloc_psi     :    140.56s CPU    153.13s WALL (   26979 calls)
     add_vuspsi   :     38.66s CPU     41.19s WALL (   26979 calls)

     General routines
     calbec       :     45.23s CPU     49.26s WALL (   28309 calls)
     fft          :      0.08s CPU      0.09s WALL (     503 calls)
     ffts         :      0.01s CPU      0.01s WALL (      50 calls)
     fftw         :    151.27s CPU    165.82s WALL ( 2381088 calls)

     Parallel routines
     fft_scatt_xy :     17.75s CPU     18.97s WALL ( 2381641 calls)
     fft_scatt_yz :     89.76s CPU     99.94s WALL ( 2381641 calls)

     PWSCF        :   8m52.96s CPU   9m35.52s WALL


   This run was terminated on:  16:10:54  15Jun2026            

=------------------------------------------------------------------------------=
   JOB DONE.
=------------------------------------------------------------------------------=
Note: The following floating-point exceptions are signalling: IEEE_DENORMAL
Note: The following floating-point exceptions are signalling: IEEE_DENORMAL
Note: The following floating-point exceptions are signalling: IEEE_DENORMAL
Note: The following floating-point exceptions are signalling: IEEE_DENORMAL
Note: The following floating-point exceptions are signalling: IEEE_DENORMAL
Note: The following floating-point exceptions are signalling: IEEE_DENORMAL
Note: The following floating-point exceptions are signalling: IEEE_DENORMAL
Note: The following floating-point exceptions are signalling: IEEE_DENORMAL
Note: The following floating-point exceptions are signalling: IEEE_DENORMAL
