
     Program PWSCF v.6.7MaX starts on 15Jun2026 at 16:10:54 

     This program is part of the open-source Quantum ESPRESSO suite
     for quantum simulation of materials; please cite
         "P. Giannozzi et al., J. Phys.:Condens. Matter 21 395502 (2009);
         "P. Giannozzi et al., J. Phys.:Condens. Matter 29 465901 (2017);
          URL http://www.quantum-espresso.org", 
     in publications or presentations arising from this work. More details at
     http://www.quantum-espresso.org/quote

     Parallel version (MPI), running on    32 processors

     MPI processes distributed on     1 nodes
     R & G space division:  proc/nbgrp/npool/nimage =      32
     Reading input from bands.in

     Current dimensions of program PWSCF are:
     Max number of different atomic species (ntypx) = 10
     Max number of k-points (npk) =  40000
     Max angular momentum in pseudopotentials (lmaxx) =  3

     Atomic positions and unit cell read from directory:
     ./out/cosn.save/
     Atomic positions from file used, from input discarded

     Message from routine read_pp_mesh:
     mesh size missing, using the one in header
     Message from routine read_pp_mesh:
     mesh size missing, using the one in header

     Subspace diagonalization in iterative solution of the eigenvalue problem:
     one sub-group per band group will be used
     scalapack distributed-memory algorithm (size of sub-group:  5*  5 procs)


     Parallelization info
     --------------------
     sticks:   dense  smooth     PW     G-vecs:    dense   smooth      PW
     Min          77      77     21                 2501     2501     355
     Max          78      78     22                 2504     2504     359
     Sum        2479    2479    673                80083    80083   11401



     bravais-lattice index     =            4
     lattice parameter (alat)  =       9.9760  a.u.
     unit-cell volume          =     693.6907 (a.u.)^3
     number of atoms/cell      =            6
     number of atomic types    =            2
     number of electrons       =        93.00
     number of Kohn-Sham states=           80
     kinetic-energy cutoff     =      90.0000  Ry
     charge density cutoff     =     360.0000  Ry
     Exchange-correlation= PBE
                           (   1   4   3   4   0   0   0)

     celldm(1)=   9.976000  celldm(2)=   0.000000  celldm(3)=   0.806800
     celldm(4)=   0.000000  celldm(5)=   0.000000  celldm(6)=   0.000000

     crystal axes: (cart. coord. in units of alat)
               a(1) = (   1.000000   0.000000   0.000000 )  
               a(2) = (  -0.500000   0.866025   0.000000 )  
               a(3) = (   0.000000   0.000000   0.806800 )  

     reciprocal axes: (cart. coord. in units 2 pi/alat)
               b(1) = (  1.000000  0.577350 -0.000000 )  
               b(2) = (  0.000000  1.154701  0.000000 )  
               b(3) = (  0.000000 -0.000000  1.239465 )  


     PseudoPot. # 1 for Co read from file:
     ./pseudo/Co_ONCV_PBE_sr.upf
     MD5 check sum: 04640e31e65e5bce9f0417487be359f7
     Pseudo is Norm-conserving, Zval = 17.0
     Generated using ONCVPSP code by D. R. Hamann
     Using radial grid of  602 points,  6 beta functions with: 
                l(1) =   0
                l(2) =   0
                l(3) =   1
                l(4) =   1
                l(5) =   2
                l(6) =   2

     PseudoPot. # 2 for Sn read from file:
     ./pseudo/Sn_ONCV_PBE_sr.upf
     MD5 check sum: 6680f7ee4d83b53e0fcd4167fcb72813
     Pseudo is Norm-conserving, Zval = 14.0
     Generated using ONCVPSP code by D. R. Hamann
     Using radial grid of  602 points,  6 beta functions with: 
                l(1) =   0
                l(2) =   0
                l(3) =   1
                l(4) =   1
                l(5) =   2
                l(6) =   2

     atomic species   valence    mass     pseudopotential
        Co            17.00    58.93300     Co( 1.00)
        Sn            14.00   118.71000     Sn( 1.00)

     Starting magnetic structure 
     atomic species   magnetization
        Co           0.300
        Sn           0.000

     24 Sym. Ops., with inversion, found



   Cartesian axes

     site n.     atom                  positions (alat units)
         1           Co  tau(   1) = (   0.5000000   0.0000000   0.0000000  )
         2           Co  tau(   2) = (  -0.2500000   0.4330127   0.0000000  )
         3           Co  tau(   3) = (   0.2500000   0.4330127   0.0000000  )
         4           Sn  tau(   4) = (   0.0000000   0.0000000   0.0000000  )
         5           Sn  tau(   5) = (  -0.0000005   0.5773506   0.4034000  )
         6           Sn  tau(   6) = (   0.5000005   0.2886748   0.4034000  )

     number of k points=    49  Methfessel-Paxton smearing, width (Ry)=  0.0200
                       cart. coord. in units 2pi/alat
        k(    1) = (   0.0000000   0.0000000   0.0000000), wk =   0.0204082
        k(    2) = (   0.0277750   0.0481077   0.0000000), wk =   0.0204082
        k(    3) = (   0.0555500   0.0962154   0.0000000), wk =   0.0204082
        k(    4) = (   0.0833250   0.1443231   0.0000000), wk =   0.0204082
        k(    5) = (   0.1111000   0.1924308   0.0000000), wk =   0.0204082
        k(    6) = (   0.1388750   0.2405386   0.0000000), wk =   0.0204082
        k(    7) = (   0.1666500   0.2886463   0.0000000), wk =   0.0204082
        k(    8) = (   0.1944250   0.3367540   0.0000000), wk =   0.0204082
        k(    9) = (   0.2222000   0.3848617   0.0000000), wk =   0.0204082
        k(   10) = (   0.2499750   0.4329694   0.0000000), wk =   0.0204082
        k(   11) = (   0.2777500   0.4810771   0.0000000), wk =   0.0204082
        k(   12) = (   0.3055250   0.5291848   0.0000000), wk =   0.0204082
        k(   13) = (   0.3333000   0.5772925   0.0000000), wk =   0.0204082
        k(   14) = (   0.3471917   0.5532411   0.0000000), wk =   0.0204082
        k(   15) = (   0.3610833   0.5291896   0.0000000), wk =   0.0204082
        k(   16) = (   0.3749750   0.5051382   0.0000000), wk =   0.0204082
        k(   17) = (   0.3888667   0.4810867   0.0000000), wk =   0.0204082
        k(   18) = (   0.4027583   0.4570353   0.0000000), wk =   0.0204082
        k(   19) = (   0.4166500   0.4329838   0.0000000), wk =   0.0204082
        k(   20) = (   0.4305417   0.4089324   0.0000000), wk =   0.0204082
        k(   21) = (   0.4444333   0.3848809   0.0000000), wk =   0.0204082
        k(   22) = (   0.4583250   0.3608295   0.0000000), wk =   0.0204082
        k(   23) = (   0.4722167   0.3367780   0.0000000), wk =   0.0204082
        k(   24) = (   0.4861083   0.3127266   0.0000000), wk =   0.0204082
        k(   25) = (   0.5000000   0.2886751   0.0000000), wk =   0.0204082
        k(   26) = (   0.4583333   0.2646189   0.0000000), wk =   0.0204082
        k(   27) = (   0.4166667   0.2405626   0.0000000), wk =   0.0204082
        k(   28) = (   0.3750000   0.2165064   0.0000000), wk =   0.0204082
        k(   29) = (   0.3333333   0.1924501   0.0000000), wk =   0.0204082
        k(   30) = (   0.2916667   0.1683938   0.0000000), wk =   0.0204082
        k(   31) = (   0.2500000   0.1443376   0.0000000), wk =   0.0204082
        k(   32) = (   0.2083333   0.1202813   0.0000000), wk =   0.0204082
        k(   33) = (   0.1666667   0.0962250   0.0000000), wk =   0.0204082
        k(   34) = (   0.1250000   0.0721688   0.0000000), wk =   0.0204082
        k(   35) = (   0.0833333   0.0481125   0.0000000), wk =   0.0204082
        k(   36) = (   0.0416667   0.0240563   0.0000000), wk =   0.0204082
        k(   37) = (   0.0000000   0.0000000   0.0000000), wk =   0.0204082
        k(   38) = (   0.0000000   0.0000000   0.0516444), wk =   0.0204082
        k(   39) = (   0.0000000   0.0000000   0.1032887), wk =   0.0204082
        k(   40) = (   0.0000000   0.0000000   0.1549331), wk =   0.0204082
        k(   41) = (   0.0000000   0.0000000   0.2065774), wk =   0.0204082
        k(   42) = (   0.0000000   0.0000000   0.2582218), wk =   0.0204082
        k(   43) = (   0.0000000   0.0000000   0.3098661), wk =   0.0204082
        k(   44) = (   0.0000000   0.0000000   0.3615105), wk =   0.0204082
        k(   45) = (   0.0000000   0.0000000   0.4131549), wk =   0.0204082
        k(   46) = (   0.0000000   0.0000000   0.4647992), wk =   0.0204082
        k(   47) = (   0.0000000   0.0000000   0.5164436), wk =   0.0204082
        k(   48) = (   0.0000000   0.0000000   0.5680879), wk =   0.0204082
        k(   49) = (   0.0000000   0.0000000   0.6197323), wk =   0.0204082

     Dense  grid:    80083 G-vectors     FFT dimensions: (  64,  64,  50)

     Estimated max dynamical RAM per process >       8.64 MB

     Estimated total dynamical RAM >     276.46 MB
     Generating pointlists ...
     new r_m :   0.2046 (alat units)  2.0413 (a.u.) for type    1
     new r_m :   0.2046 (alat units)  2.0413 (a.u.) for type    2

     The potential is recalculated from file :
     ./out/cosn.save/charge-density

     Starting wfcs are random

     Band Structure Calculation
     Davidson diagonalization with overlap

     ethr =  1.08E-09,  avg # of iterations = 18.9

     total cpu time spent up to now is      102.4 secs

     End of band structure calculation

 ------ SPIN UP ------------


          k = 0.0000 0.0000 0.0000 ( 10021 PWs)   bands (ev):

   -77.7478 -77.7351 -77.7350 -41.1140 -41.0480 -41.0349 -41.0349 -41.0345
   -41.0344 -40.9708 -40.9708 -40.9559  -4.9281  -4.8287  -4.8287  -4.8144
    -4.8144  -4.7669  -4.7467  -4.7467  -4.7103  -4.7103  -4.6682  -4.6682
    -4.6559  -4.6559  -4.6131   5.3729   9.9089  11.4956  12.6799  12.6800
    13.3468  13.6994  14.0874  14.1238  14.1239  14.6784  14.6784  15.1113
    15.1114  16.2002  16.2003  16.2330  16.2738  16.2739  17.1381  17.2290
    17.9744  17.9745  19.4869  20.1953  21.7210  21.7211  22.4529  23.1879
    23.1880  23.3217  25.2649  25.2650  25.5946  26.1846  26.1847  27.7548
    27.7548  28.8560  31.9947  31.9947  32.2107  34.4078  34.5020  34.5020
    35.1485  35.3904  35.3904  36.4690  36.8374  36.8374  37.3935  37.6452

          k = 0.0278 0.0481 0.0000 ( 10021 PWs)   bands (ev):

   -77.7478 -77.7352 -77.7350 -41.1134 -41.0479 -41.0350 -41.0346 -41.0346
   -41.0344 -40.9713 -40.9709 -40.9561  -4.9279  -4.8308  -4.8298  -4.8149
    -4.8146  -4.7682  -4.7462  -4.7457  -4.7084  -4.7079  -4.6678  -4.6675
    -4.6567  -4.6560  -4.6133   5.3901   9.8986  11.3564  12.6360  12.7661
    13.3511  13.6961  14.0882  14.1661  14.1675  14.6787  14.6818  15.1025
    15.1168  16.2022  16.2094  16.2277  16.2719  16.2876  17.1382  17.2675
    17.9845  17.9947  19.5048  20.1875  21.6477  21.7147  22.4014  22.7456
    23.1745  23.7559  25.2922  25.3834  25.6630  26.2281  26.2629  27.5849
    27.7073  28.7214  32.0708  32.1734  32.4037  34.1985  34.2869  34.3153
    34.9776  35.2280  35.3425  36.3565  36.8191  37.0325  37.1693  37.7600

          k = 0.0555 0.0962 0.0000 ( 10003 PWs)   bands (ev):

   -77.7476 -77.7354 -77.7350 -41.1118 -41.0477 -41.0351 -41.0348 -41.0344
   -41.0335 -40.9728 -40.9712 -40.9568  -4.9273  -4.8368  -4.8328  -4.8160
    -4.8153  -4.7714  -4.7449  -4.7428  -4.7034  -4.7021  -4.6665  -4.6655
    -4.6590  -4.6560  -4.6137   5.4417   9.8649  11.0345  12.5263  12.9326
    13.3639  13.7020  14.0901  14.2595  14.2890  14.6794  14.6931  15.0763
    15.1334  16.2066  16.2113  16.2327  16.2662  16.3303  17.1402  17.3716
    18.0230  18.0621  19.5613  20.1616  21.4489  21.6687  22.2481  22.3073
    23.1464  24.2216  25.3427  25.7016  25.8410  26.3660  26.4864  27.1469
    27.5793  28.4666  32.2780  32.3963  33.0552  33.5512  33.7108  33.9019
    34.8595  34.8982  35.2111  36.0164  36.5054  37.1116  37.1673  38.1844

          k = 0.0833 0.1443 0.0000 (  9989 PWs)   bands (ev):

   -77.7473 -77.7357 -77.7350 -41.1091 -41.0474 -41.0355 -41.0351 -41.0344
   -41.0318 -40.9753 -40.9719 -40.9578  -4.9264  -4.8460  -4.8368  -4.8176
    -4.8161  -4.7749  -4.7430  -4.7385  -4.6964  -4.6952  -4.6640  -4.6627
    -4.6621  -4.6561  -4.6145   5.5276   9.8007  10.6427  12.3990  13.0842
    13.3850  13.7314  14.0923  14.3534  14.4560  14.6808  14.7180  15.0341
    15.1606  16.1843  16.2080  16.2566  16.2619  16.4036  17.1482  17.5001
    18.1170  18.1952  19.6660  20.1125  21.1688  21.5288  21.7623  22.2854
    23.1310  24.6333  25.3947  25.8363  26.1404  26.6169  26.8296  26.8300
    27.4129  28.2248  32.2993  32.4817  33.0313  33.1002  33.2819  33.8954
    34.5754  34.8303  35.0232  35.4551  36.2829  37.0209  37.2340  38.1380

          k = 0.1111 0.1924 0.0000 ( 10007 PWs)   bands (ev):

   -77.7468 -77.7361 -77.7350 -41.1056 -41.0469 -41.0360 -41.0356 -41.0344
   -41.0294 -40.9787 -40.9727 -40.9591  -4.9252  -4.8572  -4.8407  -4.8193
    -4.8168  -4.7782  -4.7413  -4.7333  -4.6893  -4.6889  -4.6673  -4.6599
    -4.6573  -4.6562  -4.6155   5.6475   9.6978  10.2314  12.2992  13.2018
    13.4141  13.7834  14.0932  14.4152  14.6209  14.6829  14.7666  14.9788
    15.1980  16.1480  16.1971  16.2433  16.2913  16.5091  17.1656  17.5946
    18.2940  18.4192  19.8359  20.0351  20.8455  21.2943  21.3101  22.3649
    23.1547  24.9712  25.2781  25.4524  26.5700  26.9946  27.0371  27.2656
    27.3155  28.0550  31.5175  31.9426  32.5379  33.1168  33.4286  33.9940
    34.2716  34.8049  34.8285  35.5679  36.1004  36.9219  37.3055  38.0382

          k = 0.1389 0.2405 0.0000 ( 10015 PWs)   bands (ev):

   -77.7463 -77.7366 -77.7350 -41.1012 -41.0463 -41.0369 -41.0361 -41.0344
   -41.0263 -40.9828 -40.9737 -40.9607  -4.9240  -4.8692  -4.8438  -4.8206
    -4.8173  -4.7813  -4.7401  -4.7276  -4.6838  -4.6835  -4.6724  -4.6561
    -4.6538  -4.6516  -4.6166   5.8010   9.5526   9.8227  12.2557  13.2932
    13.4505  13.8519  14.0909  14.4340  14.6844  14.7479  14.8444  14.9150
    15.2450  16.1038  16.1658  16.2264  16.3190  16.6480  17.1927  17.6382
    18.5284  18.7517  19.9284  20.0914  20.5024  20.8473  21.0729  22.5089
    23.2336  24.5523  25.2409  25.5159  26.6748  27.2394  27.4903  27.5885
    27.7710  28.1303  30.6444  31.1406  31.7513  33.2367  33.4629  33.9736
    33.9781  34.5748  34.8812  35.9060  36.5137  36.8696  37.3809  37.7723

          k = 0.1666 0.2886 0.0000 ( 10007 PWs)   bands (ev):

   -77.7457 -77.7372 -77.7350 -41.0963 -41.0457 -41.0382 -41.0368 -41.0344
   -41.0228 -40.9872 -40.9749 -40.9624  -4.9229  -4.8809  -4.8455  -4.8214
    -4.8172  -4.7844  -4.7402  -4.7219  -4.6800  -4.6793  -4.6774  -4.6560
    -4.6462  -4.6456  -4.6178   5.9876   9.3695   9.4282  12.2798  13.3672
    13.4936  13.9292  14.0827  14.4179  14.6862  14.8221  14.8481  14.9447
    15.3006  16.0531  16.1129  16.2062  16.3451  16.8208  17.2295  17.6510
    18.7644  19.1833  19.7963  20.1454  20.4238  20.4442  20.8617  22.6884
    23.3719  23.8468  25.4661  25.5835  26.5338  27.1750  28.0775  28.1184
    28.3217  28.4626  29.8957  30.3895  30.9691  32.3875  33.6813  33.6865
    34.3450  34.5614  35.0897  35.7143  36.8692  37.2316  37.2458  37.2686

          k = 0.1944 0.3368 0.0000 ( 10007 PWs)   bands (ev):

   -77.7450 -77.7379 -77.7350 -41.0909 -41.0450 -41.0403 -41.0375 -41.0344
   -41.0188 -40.9915 -40.9761 -40.9643  -4.9221  -4.8915  -4.8455  -4.8215
    -4.8167  -4.7879  -4.7421  -4.7165  -4.6817  -4.6772  -4.6765  -4.6556
    -4.6402  -4.6384  -4.6187   6.2062   9.0546   9.1600  12.3694  13.4285
    13.5425  14.0028  14.0658  14.3821  14.6857  14.7847  14.8487  15.0587
    15.3637  15.9977  16.0439  16.1830  16.3702  17.0272  17.2797  17.6499
    18.9736  19.6463  19.6542  19.7852  20.0252  20.7339  20.8491  22.8825
    23.2451  23.5648  25.6446  25.6713  26.3728  27.0300  28.3337  28.4946
    28.7300  28.8583  29.8038  29.9093  30.2599  31.5219  33.3989  33.7050
    34.1228  35.1893  35.5109  35.5291  36.4091  36.6019  36.8680  37.1873

          k = 0.2222 0.3849 0.0000 (  9987 PWs)   bands (ev):

   -77.7443 -77.7386 -77.7350 -41.0852 -41.0442 -41.0432 -41.0382 -41.0344
   -41.0146 -40.9953 -40.9772 -40.9664  -4.9221  -4.9001  -4.8436  -4.8211
    -4.8156  -4.7921  -4.7456  -4.7115  -4.6852  -4.6751  -4.6746  -4.6551
    -4.6356  -4.6319  -4.6189   6.4555   8.7062   8.9384  12.5159  13.4787
    13.5962  14.0379  14.0452  14.3520  14.6813  14.7306  14.8389  15.1801
    15.4327  15.9392  15.9661  16.1577  16.3945  17.2663  17.3507  17.6449
    19.1499  19.4220  19.4876  19.6526  19.9664  20.8680  21.1877  22.8730
    23.0696  23.8025  25.6806  25.8729  26.2506  26.8926  27.6660  28.2347
    28.9884  29.4283  30.0211  30.1484  30.3090  30.7463  33.1312  33.5909
    33.9126  35.3008  35.6200  35.8693  35.8721  36.0433  36.7166  36.8882

          k = 0.2500 0.4330 0.0000 (  9981 PWs)   bands (ev):

   -77.7435 -77.7394 -77.7350 -41.0794 -41.0470 -41.0434 -41.0390 -41.0344
   -41.0106 -40.9983 -40.9781 -40.9686  -4.9233  -4.9059  -4.8398  -4.8200
    -4.8144  -4.7971  -4.7503  -4.7070  -4.6880  -4.6737  -4.6733  -4.6545
    -4.6322  -4.6282  -4.6175   6.7328   8.3859   8.7187  12.7082  13.5177
    13.6536  13.9980  14.0110  14.3671  14.6697  14.6898  14.8069  15.3036
    15.5056  15.8793  15.8847  16.1313  16.4176  17.4512  17.5360  17.6423
    19.0097  19.3069  19.3287  19.3503  19.9802  21.2482  21.3790  22.9219
    23.2241  24.0707  25.6644  26.0813  26.1923  26.6438  27.1262  27.6448
    28.4323  29.7833  30.1578  30.5379  30.8012  31.1950  32.8823  33.4215
    33.7169  34.8705  35.1077  35.1219  36.0752  36.1133  36.8036  36.8297

          k = 0.2777 0.4811 0.0000 (  9989 PWs)   bands (ev):

   -77.7428 -77.7401 -77.7350 -41.0735 -41.0517 -41.0426 -41.0398 -41.0344
   -41.0072 -41.0004 -40.9784 -40.9709  -4.9254  -4.9089  -4.8342  -4.8184
    -4.8134  -4.8031  -4.7551  -4.7030  -4.6904  -4.6727  -4.6724  -4.6538
    -4.6298  -4.6272  -4.6148   7.0330   8.0958   8.5145  12.9349  13.5448
    13.7132  13.8948  13.9479  14.4241  14.6454  14.6634  14.7701  15.4232
    15.5794  15.8017  15.8199  16.1062  16.4384  17.5883  17.6466  17.8325
    18.6335  18.9889  19.1789  19.5025  19.8947  21.0815  22.0382  23.2883
    23.3184  24.3471  25.5550  26.1249  26.1942  26.3024  27.0600  27.0789
    27.7814  29.0195  30.9022  31.2256  31.5398  31.9722  32.6580  33.2389
    33.5358  34.1727  34.3871  34.9012  35.4607  35.5916  37.3879  37.4937

          k = 0.3055 0.5292 0.0000 (  9969 PWs)   bands (ev):

   -77.7421 -77.7408 -77.7350 -41.0678 -41.0569 -41.0419 -41.0406 -41.0344
   -41.0049 -41.0015 -40.9777 -40.9733  -4.9274  -4.9102  -4.8270  -4.8166
    -4.8132  -4.8102  -4.7588  -4.6993  -4.6929  -4.6722  -4.6720  -4.6534
    -4.6284  -4.6274  -4.6126   7.3422   7.8374   8.3448  13.1813  13.5593
    13.7212  13.7735  13.8913  14.4913  14.6037  14.6498  14.7457  15.5330
    15.6496  15.7168  15.7627  16.0861  16.4545  17.6605  17.7658  18.1458
    18.2756  18.6992  19.0512  19.6387  19.8034  20.9115  22.7013  23.3375
    23.5899  24.5885  25.3278  25.8453  26.1201  26.5397  26.7910  27.1052
    27.1987  28.3731  31.6217  31.9054  32.2277  32.4901  32.7002  33.0827
    33.3567  33.5759  33.6998  34.6570  34.8487  35.0894  37.9424  38.2435

          k = 0.3333 0.5773 0.0000 (  9957 PWs)   bands (ev):

   -77.7415 -77.7414 -77.7350 -41.0623 -41.0622 -41.0413 -41.0411 -41.0345
   -41.0042 -41.0018 -40.9758 -40.9757  -4.9281  -4.9105  -4.8186  -4.8186
    -4.8145  -4.8145  -4.7602  -4.6959  -4.6959  -4.6719  -4.6719  -4.6532
    -4.6277  -4.6277  -4.6118   7.6115   7.6118   8.2612  13.3705  13.5614
    13.5614  13.8327  13.8328  14.5514  14.5514  14.6460  14.7381  15.6291
    15.6293  15.7090  15.7093  16.0775  16.4613  17.6750  17.9824  17.9829
    18.4379  18.4385  18.9847  19.7300  19.7300  20.8446  23.0837  23.4552
    23.4560  24.7006  25.2527  25.8888  25.8892  26.7947  26.7954  26.9569
    26.9577  28.0955  32.1010  32.1014  32.5450  32.6000  33.0584  33.0585
    33.1716  33.3000  33.3001  34.5170  34.5170  34.8694  38.3060  38.8581

          k = 0.3472 0.5532 0.0000 (  9967 PWs)   bands (ev):

   -77.7417 -77.7412 -77.7350 -41.0649 -41.0596 -41.0415 -41.0409 -41.0344
   -41.0044 -41.0018 -40.9770 -40.9744  -4.9279  -4.9104  -4.8232  -4.8157
    -4.8140  -4.8134  -4.7598  -4.6976  -4.6943  -4.6720  -4.6719  -4.6532
    -4.6279  -4.6276  -4.6120   7.5113   7.6898   8.2933  13.2953  13.5582
    13.6313  13.8041  13.8613  14.5250  14.5762  14.6467  14.7398  15.5845
    15.6719  15.6844  15.7320  16.0802  16.4591  17.6626  17.8904  18.1037
    18.3190  18.5361  19.0147  19.7036  19.7523  20.8615  23.0255  23.2380
    23.6528  24.6648  25.2492  25.8282  25.9963  26.7057  26.7940  26.9294
    27.1364  28.1533  31.9936  32.0651  32.4897  32.4906  32.9580  33.0290
    33.1772  33.3667  33.4994  34.5217  34.6040  34.9730  38.0797  38.7453

          k = 0.3611 0.5292 0.0000 (  9985 PWs)   bands (ev):

   -77.7420 -77.7409 -77.7350 -41.0675 -41.0571 -41.0418 -41.0406 -41.0344
   -41.0048 -41.0016 -40.9782 -40.9730  -4.9274  -4.9102  -4.8280  -4.8173
    -4.8124  -4.8094  -4.7588  -4.6996  -4.6926  -4.6722  -4.6719  -4.6534
    -4.6280  -4.6276  -4.6125   7.4196   7.7129   8.3916  13.1557  13.5525
    13.7503  13.7767  13.8887  14.5000  14.5967  14.6487  14.7449  15.5395
    15.6611  15.7114  15.7488  16.0886  16.4522  17.6156  17.8592  18.2076
    18.2307  18.5747  19.1135  19.6862  19.7604  20.9094  22.9028  22.9785
    23.8177  24.5570  25.2302  25.8486  26.0266  26.7031  26.7312  27.0678
    27.3551  28.2975  31.8197  31.8837  32.3116  32.3554  32.7304  32.9267
    33.1308  33.6472  33.8536  34.4729  34.8590  35.2595  37.6019  38.3239

          k = 0.3750 0.5051 0.0000 (  9981 PWs)   bands (ev):

   -77.7423 -77.7406 -77.7350 -41.0700 -41.0546 -41.0421 -41.0403 -41.0344
   -41.0055 -41.0013 -40.9794 -40.9715  -4.9265  -4.9097  -4.8330  -4.8191
    -4.8114  -4.8047  -4.7572  -4.7017  -4.6911  -4.6724  -4.6720  -4.6536
    -4.6281  -4.6277  -4.6134   7.3364   7.6976   8.5387  12.9949  13.5449
    13.7507  13.8744  13.9149  14.4768  14.6128  14.6516  14.7531  15.4943
    15.6396  15.7485  15.7596  16.1028  16.4398  17.5503  17.8735  18.1042
    18.3613  18.5699  19.2646  19.6800  19.7587  20.9803  22.7076  22.7419
    23.9211  24.3885  25.1958  25.8687  25.9571  26.7763  26.8814  27.2100
    27.6071  28.4999  31.5782  31.6495  32.1610  32.1725  32.4438  32.8040
    33.0807  34.0003  34.2544  34.3969  35.2113  35.6251  37.0694  37.8490

          k = 0.3889 0.4811 0.0000 (  9979 PWs)   bands (ev):

   -77.7425 -77.7403 -77.7350 -41.0723 -41.0522 -41.0424 -41.0401 -41.0344
   -41.0064 -41.0009 -40.9805 -40.9699  -4.9254  -4.9090  -4.8383  -4.8209
    -4.8105  -4.8001  -4.7551  -4.7041  -4.6895  -4.6726  -4.6721  -4.6540
    -4.6281  -4.6278  -4.6145   7.2619   7.6650   8.7128  12.8205  13.5358
    13.7267  13.9393  13.9955  14.4559  14.6245  14.6550  14.7642  15.4493
    15.6200  15.7648  15.7838  16.1220  16.4218  17.4898  17.9095  18.0091
    18.4917  18.5465  19.4424  19.6882  19.7527  21.0612  22.4482  22.5523
    23.9695  24.1792  25.1447  25.6241  26.1392  26.9064  27.1424  27.3552
    27.8882  28.7473  31.2938  31.4014  31.9212  32.0747  32.1324  32.6950
    33.0346  34.3068  34.3778  34.6746  35.6126  35.9927  36.5279  37.4099

          k = 0.4028 0.4570 0.0000 (  9995 PWs)   bands (ev):

   -77.7428 -77.7401 -77.7350 -41.0744 -41.0499 -41.0426 -41.0398 -41.0344
   -41.0073 -41.0004 -40.9816 -40.9684  -4.9242  -4.9078  -4.8437  -4.8229
    -4.8097  -4.7956  -4.7525  -4.7066  -4.6880  -4.6729  -4.6723  -4.6545
    -4.6281  -4.6280  -4.6159   7.1960   7.6272   8.9005  12.6366  13.5259
    13.7048  13.9619  14.1100  14.4376  14.6323  14.6586  14.7782  15.4049
    15.6023  15.7656  15.8180  16.1447  16.3988  17.4417  17.9226  17.9570
    18.5172  18.6168  19.6327  19.7153  19.7473  21.1300  22.2262  22.3411
    23.9473  23.9818  25.0550  25.3905  26.3688  27.0764  27.4367  27.5025
    28.1943  29.0332  30.9917  31.1544  31.6564  31.8121  32.0015  32.6033
    32.9935  34.2005  34.7619  35.1050  35.9767  36.0551  36.2253  37.1453

          k = 0.4166 0.4330 0.0000 (  9987 PWs)   bands (ev):

   -77.7430 -77.7399 -77.7350 -41.0763 -41.0479 -41.0428 -41.0396 -41.0344
   -41.0084 -40.9999 -40.9827 -40.9671  -4.9231  -4.9062  -4.8492  -4.8247
    -4.8089  -4.7914  -4.7496  -4.7093  -4.6866  -4.6732  -4.6724  -4.6550
    -4.6282  -4.6280  -4.6174   7.1388   7.5899   9.0940  12.4468  13.5158
    13.6854  13.9822  14.2155  14.4217  14.6363  14.6623  14.7946  15.3619
    15.5867  15.7635  15.8516  16.1691  16.3716  17.4064  17.8454  18.0115
    18.4878  18.7302  19.7469  19.7667  19.8277  21.1493  22.0810  22.1149
    23.7070  23.9750  24.8757  25.2445  26.6214  27.2738  27.6500  27.7383
    28.5201  29.3515  30.6848  30.9160  31.3847  31.4921  31.9438  32.5238
    32.9578  34.0689  35.1422  35.4689  35.5405  36.0950  36.4832  37.2903

          k = 0.4305 0.4089 0.0000 (  9993 PWs)   bands (ev):

   -77.7431 -77.7398 -77.7350 -41.0779 -41.0460 -41.0430 -41.0394 -41.0344
   -41.0094 -40.9993 -40.9837 -40.9659  -4.9221  -4.9039  -4.8548  -4.8263
    -4.8082  -4.7876  -4.7465  -4.7123  -4.6853  -4.6735  -4.6726  -4.6555
    -4.6283  -4.6278  -4.6189   7.0904   7.5560   9.2871  12.2560  13.5060
    13.6686  13.9999  14.3099  14.4084  14.6371  14.6658  14.8127  15.3208
    15.5734  15.7597  15.8848  16.1935  16.3415  17.3820  17.7780  18.0695
    18.4607  18.8258  19.7550  19.8477  20.0215  21.0826  21.8793  22.0497
    23.4692  23.9602  24.6275  25.1768  26.8783  27.4903  27.7952  28.0383
    28.8574  29.6922  30.3793  30.6916  31.1210  31.1804  31.8975  32.4504
    32.9274  33.8983  34.9736  35.5095  35.7908  35.9767  36.9300  37.6686

          k = 0.4444 0.3849 0.0000 ( 10005 PWs)   bands (ev):

   -77.7433 -77.7396 -77.7350 -41.0793 -41.0443 -41.0432 -41.0393 -41.0344
   -41.0104 -40.9988 -40.9846 -40.9648  -4.9214  -4.9011  -4.8603  -4.8278
    -4.8077  -4.7842  -4.7432  -4.7154  -4.6841  -4.6738  -4.6727  -4.6561
    -4.6285  -4.6276  -4.6204   7.0507   7.5271   9.4736  12.0704  13.4972
    13.6547  14.0149  14.3917  14.3976  14.6350  14.6689  14.8317  15.2829
    15.5624  15.7553  15.9173  16.2162  16.3103  17.3661  17.7213  18.1272
    18.4375  18.8998  19.7743  19.9609  20.2074  20.9437  21.6395  22.1188
    23.2439  23.9436  24.3672  25.1387  27.1248  27.7197  27.9339  28.3343
    29.1926  30.0304  30.0795  30.4869  30.8802  30.8967  31.8608  32.3774
    32.9026  33.6753  34.5162  35.5049  35.8528  36.4072  37.3762  38.1004

          k = 0.4583 0.3608 0.0000 ( 10017 PWs)   bands (ev):

   -77.7434 -77.7395 -77.7350 -41.0803 -41.0433 -41.0429 -41.0392 -41.0344
   -41.0112 -40.9983 -40.9853 -40.9640  -4.9208  -4.8977  -4.8657  -4.8290
    -4.8072  -4.7814  -4.7397  -4.7186  -4.6830  -4.6741  -4.6728  -4.6566
    -4.6286  -4.6273  -4.6219   7.0198   7.5039   9.6448  11.8990  13.4899
    13.6437  14.0268  14.3893  14.4598  14.6299  14.6715  14.8503  15.2495
    15.5537  15.7510  15.9479  16.2357  16.2798  17.3563  17.6759  18.1799
    18.4189  18.9520  19.8062  20.1046  20.3768  20.7786  21.4000  22.2411
    23.0422  23.9286  24.1200  25.1136  27.3470  27.9560  28.0598  28.6262
    29.5009  29.7898  30.2420  30.3090  30.6838  30.7547  31.8328  32.2989
    32.8832  33.3982  34.1161  35.2873  36.1573  36.8211  37.8130  38.5364

          k = 0.4722 0.3368 0.0000 ( 10022 PWs)   bands (ev):

   -77.7435 -77.7394 -77.7350 -41.0811 -41.0434 -41.0419 -41.0391 -41.0344
   -41.0119 -40.9979 -40.9859 -40.9634  -4.9205  -4.8940  -4.8708  -4.8298
    -4.8069  -4.7794  -4.7361  -4.7220  -4.6823  -4.6743  -4.6729  -4.6570
    -4.6287  -4.6268  -4.6232   6.9977   7.4871   9.7884  11.7548  13.4843
    13.6358  14.0354  14.3834  14.5139  14.6213  14.6734  14.8665  15.2227
    15.5475  15.7476  15.9747  16.2507  16.2527  17.3506  17.6427  18.2227
    18.4053  18.9856  19.8485  20.2731  20.5172  20.6237  21.1655  22.3767
    22.8778  23.9043  23.9170  25.0970  27.5286  28.1638  28.1898  28.9136
    29.5186  29.7372  30.1033  30.1676  30.5664  30.9594  31.8131  32.2125
    32.8694  33.0903  33.8002  35.1439  36.4032  37.1961  38.2231  38.9460

          k = 0.4861 0.3127 0.0000 ( 10010 PWs)   bands (ev):

   -77.7435 -77.7394 -77.7350 -41.0816 -41.0434 -41.0412 -41.0390 -41.0344
   -41.0123 -40.9977 -40.9863 -40.9630  -4.9203  -4.8905  -4.8752  -4.8303
    -4.8067  -4.7781  -4.7326  -4.7254  -4.6818  -4.6744  -4.6730  -4.6573
    -4.6287  -4.6263  -4.6242   6.9845   7.4769   9.8872  11.6555  13.4809
    13.6310  14.0407  14.3799  14.5544  14.6084  14.6746  14.8778  15.2050
    15.5437  15.7453  15.9941  16.2330  16.2602  17.3478  17.6225  18.2507
    18.3971  19.0040  19.8907  20.4550  20.5077  20.6124  20.9453  22.4889
    22.7679  23.7469  23.9098  25.0874  27.6505  28.2340  28.3958  29.1892
    29.2903  29.8491  29.8538  30.0748  30.5507  31.2367  31.8013  32.1319
    32.8111  32.8610  33.5974  35.0647  36.5660  37.4842  38.5625  39.2765

          k = 0.5000 0.2887 0.0000 ( 10026 PWs)   bands (ev):

   -77.7435 -77.7394 -77.7350 -41.0817 -41.0434 -41.0410 -41.0390 -41.0344
   -41.0125 -40.9976 -40.9864 -40.9629  -4.9202  -4.8887  -4.8772  -4.8305
    -4.8066  -4.7777  -4.7293  -4.7287  -4.6816  -4.6745  -4.6730  -4.6574
    -4.6288  -4.6259  -4.6248   6.9801   7.4735   9.9229  11.6195  13.4797
    13.6294  14.0425  14.3787  14.5763  14.5957  14.6750  14.8819  15.1987
    15.5425  15.7446  16.0014  16.2256  16.2634  17.3469  17.6157  18.2605
    18.3943  19.0098  19.9101  20.4627  20.5813  20.6465  20.8064  22.5344
    22.7289  23.6867  23.9073  25.0842  27.6938  28.2591  28.4941  29.1846
    29.3672  29.6741  29.8784  30.0421  30.5681  31.3659  31.7974  32.0959
    32.6841  32.8583  33.5279  35.0396  36.6235  37.5995  38.7130  39.4168

          k = 0.4583 0.2646 0.0000 ( 10008 PWs)   bands (ev):

   -77.7437 -77.7392 -77.7350 -41.0825 -41.0436 -41.0407 -41.0389 -41.0344
   -41.0132 -40.9970 -40.9858 -40.9628  -4.9203  -4.8880  -4.8766  -4.8303
    -4.8071  -4.7778  -4.7289  -4.7288  -4.6816  -4.6747  -4.6732  -4.6574
    -4.6307  -4.6257  -4.6245   6.8503   7.6242   9.9270  11.6314  13.4710
    13.6212  14.0464  14.3604  14.5769  14.6045  14.6829  14.8792  15.1875
    15.5199  15.7683  16.0071  16.2327  16.2634  17.3435  17.5339  18.2248
    18.4940  19.0578  19.7526  20.3187  20.6520  20.7170  20.9321  22.5080
    22.7348  23.6646  23.7419  25.4537  27.5946  27.8551  28.9094  28.9866
    29.0316  29.7935  30.2306  30.2617  30.3943  31.4238  31.5699  31.7893
    32.8812  33.2634  33.4149  35.3073  36.5485  37.6845  38.5293  39.5099

          k = 0.4167 0.2406 0.0000 (  9988 PWs)   bands (ev):

   -77.7441 -77.7388 -77.7350 -41.0848 -41.0440 -41.0400 -41.0385 -41.0344
   -41.0150 -40.9954 -40.9841 -40.9626  -4.9206  -4.8858  -4.8745  -4.8296
    -4.8084  -4.7779  -4.7297  -4.7277  -4.6814  -4.6755  -4.6737  -4.6573
    -4.6342  -4.6280  -4.6226   6.6246   7.9121   9.9394  11.6667  13.4464
    13.5988  14.0564  14.3130  14.5784  14.6235  14.7059  14.8698  15.1551
    15.4703  15.8212  16.0233  16.2520  16.2635  17.3328  17.3593  18.1386
    18.7208  19.1761  19.4509  20.0900  20.6696  20.9541  21.0958  22.3332
    22.7524  23.4502  23.9076  26.1550  27.3512  27.3724  28.5496  28.6214
    29.4053  30.0403  30.1358  30.6917  30.7607  30.8252  31.2177  31.9764
    33.1566  33.2366  33.9771  35.9219  36.3774  37.8820  38.1957  39.3986

          k = 0.3750 0.2165 0.0000 (  9984 PWs)   bands (ev):

   -77.7446 -77.7383 -77.7350 -41.0882 -41.0445 -41.0390 -41.0379 -41.0344
   -41.0175 -40.9930 -40.9819 -40.9623  -4.9211  -4.8821  -4.8712  -4.8285
    -4.8102  -4.7782  -4.7310  -4.7266  -4.6806  -4.6769  -4.6747  -4.6571
    -4.6385  -4.6318  -4.6210   6.3981   8.2400   9.9609  11.7250  13.4092
    13.5669  14.0686  14.2471  14.5798  14.6421  14.7424  14.8502  15.1042
    15.4135  15.8833  16.0482  16.2636  16.2785  17.1659  17.3144  18.0336
    18.9961  19.1316  19.3034  19.8999  20.7038  21.1401  21.1711  22.0141
    22.7811  23.5687  24.1807  26.9077  26.9220  27.0467  28.0904  28.2374
    29.6679  29.7414  30.4594  30.5184  30.5746  31.1837  31.2985  32.4483
    33.0635  33.4637  34.7565  36.1781  36.6810  37.8354  38.1121  38.8217

          k = 0.3333 0.1925 0.0000 (  9990 PWs)   bands (ev):

   -77.7451 -77.7378 -77.7350 -41.0921 -41.0451 -41.0381 -41.0374 -41.0344
   -41.0204 -40.9899 -40.9795 -40.9618  -4.9218  -4.8771  -4.8666  -4.8270
    -4.8121  -4.7784  -4.7327  -4.7263  -4.6790  -4.6789  -4.6761  -4.6570
    -4.6435  -4.6369  -4.6195   6.1882   8.5863   9.9936  11.8050  13.3642
    13.5302  14.0796  14.1681  14.5793  14.6557  14.7899  14.8160  15.0382
    15.3568  15.9468  16.0790  16.2638  16.3050  16.9804  17.2877  17.9285
    18.8341  19.2839  19.3068  19.8723  20.7634  20.9309  21.3421  21.8489
    22.8203  23.8956  24.5502  26.4654  26.7312  27.4388  27.8661  27.8995
    29.2588  29.4356  29.9554  30.7958  30.9830  31.7060  31.7886  32.9532
    33.0017  33.7504  35.5555  35.9884  37.4257  37.4596  37.9553  38.1481

          k = 0.2917 0.1684 0.0000 ( 10010 PWs)   bands (ev):

   -77.7457 -77.7372 -77.7350 -41.0963 -41.0457 -41.0372 -41.0368 -41.0344
   -41.0233 -40.9865 -40.9772 -40.9612  -4.9227  -4.8710  -4.8610  -4.8253
    -4.8138  -4.7784  -4.7347  -4.7273  -4.6815  -4.6782  -4.6763  -4.6568
    -4.6489  -4.6427  -4.6182   5.9999   8.9372  10.0429  11.9050  13.3149
    13.4927  14.0787  14.0876  14.5739  14.6627  14.7641  14.8445  14.9605
    15.3033  16.0081  16.1122  16.2640  16.3240  16.8123  17.2537  17.8311
    18.5780  19.1294  19.5576  20.0416  20.5677  20.8645  21.4678  21.8637
    22.8686  24.3308  24.9952  26.0459  26.4324  27.1285  27.5176  28.3348
    28.6758  29.1593  29.5979  31.3451  31.4773  32.1353  32.2480  33.1008
    33.4742  34.0495  35.7827  36.3934  36.8286  36.9753  37.5761  38.3925

          k = 0.2500 0.1443 0.0000 ( 10012 PWs)   bands (ev):

   -77.7462 -77.7367 -77.7350 -41.1004 -41.0462 -41.0365 -41.0362 -41.0344
   -41.0261 -40.9830 -40.9752 -40.9603  -4.9237  -4.8640  -4.8547  -4.8233
    -4.8150  -4.7781  -4.7369  -4.7296  -4.6848  -4.6813  -4.6727  -4.6566
    -4.6542  -4.6488  -4.6170   5.8349   9.2719  10.1232  12.0226  13.2625
    13.4570  13.9822  14.0921  14.5580  14.6542  14.7026  14.8766  14.9021
    15.2548  16.0650  16.1440  16.2644  16.3290  16.6658  17.2164  17.7424
    18.3733  18.8736  19.7893  20.1424  20.3822  21.0297  21.5570  21.9343
    22.9239  24.8237  25.4774  25.6469  26.1802  26.7524  27.1979  28.1012
    28.1372  28.9190  30.0155  31.9291  31.9840  32.2731  32.8029  33.4011
    33.9825  34.3412  35.6269  36.0814  36.1680  37.1765  37.2450  38.6204

          k = 0.2083 0.1203 0.0000 ( 10008 PWs)   bands (ev):

   -77.7467 -77.7362 -77.7350 -41.1043 -41.0467 -41.0360 -41.0357 -41.0344
   -41.0286 -40.9796 -40.9737 -40.9593  -4.9248  -4.8563  -4.8482  -4.8212
    -4.8157  -4.7773  -4.7393  -4.7330  -4.6891  -4.6856  -4.6686  -4.6589
    -4.6564  -4.6547  -4.6159   5.6945   9.5502  10.2675  12.1540  13.2039
    13.4248  13.8842  14.0937  14.5208  14.5812  14.6827  14.7976  14.9586
    15.2124  16.1157  16.1709  16.2650  16.3169  16.5426  17.1825  17.6563
    18.2215  18.5940  19.9155  19.9589  20.6438  21.2755  21.6192  22.0212
    22.9837  25.2631  25.3299  25.7615  26.1944  26.4088  26.9118  27.5686
    27.6298  28.7213  30.8023  32.3097  32.4846  32.5167  33.3631  33.7768
    34.3525  34.4437  35.4567  35.4938  35.6449  37.0202  37.8159  38.4942

          k = 0.1667 0.0962 0.0000 ( 10010 PWs)   bands (ev):

   -77.7471 -77.7358 -77.7350 -41.1076 -41.0472 -41.0356 -41.0353 -41.0344
   -41.0308 -40.9766 -40.9725 -40.9583  -4.9258  -4.8484  -4.8419  -4.8191
    -4.8158  -4.7757  -4.7416  -4.7368  -4.6942  -4.6912  -4.6646  -4.6626
    -4.6597  -4.6563  -4.6149   5.5791   9.7304  10.5078  12.2934  13.1292
    13.3974  13.7957  14.0932  14.4493  14.4728  14.6806  14.7394  15.0099
    15.1767  16.1586  16.1904  16.2659  16.2903  16.4433  17.1581  17.5613
    18.1162  18.3393  19.7370  20.0679  20.9513  21.5968  21.6618  22.1158
    23.0440  24.8855  25.6287  25.7560  26.1227  26.6646  26.6700  27.0982
    27.1790  28.5774  31.5828  32.3929  32.9328  33.0875  33.9175  33.9473
    34.1510  34.1965  35.3925  35.4593  35.7661  36.8660  38.1065  38.1375

          k = 0.1250 0.0722 0.0000 ( 10000 PWs)   bands (ev):

   -77.7474 -77.7355 -77.7350 -41.1103 -41.0475 -41.0353 -41.0349 -41.0344
   -41.0326 -40.9741 -40.9717 -40.9573  -4.9268  -4.8409  -4.8364  -4.8172
    -4.8155  -4.7733  -4.7436  -4.7406  -4.6999  -4.6975  -4.6653  -4.6636
    -4.6610  -4.6561  -4.6142   5.4890   9.8262  10.8166  12.4321  13.0250
    13.3755  13.7315  14.0915  14.3475  14.3547  14.6797  14.7063  15.0528
    15.1484  16.1924  16.2009  16.2575  16.2674  16.3677  17.1446  17.4505
    18.0470  18.1525  19.6175  20.1331  21.2489  21.6902  21.9733  22.2165
    23.1002  24.5030  25.4760  25.7740  25.9978  26.4620  26.7096  27.0583
    27.1652  28.5122  31.9865  32.8515  33.0576  33.3338  33.6124  33.8676
    34.4466  34.4821  35.3313  35.8440  36.1961  36.7890  37.7843  38.1784

          k = 0.0833 0.0481 0.0000 ( 10018 PWs)   bands (ev):

   -77.7476 -77.7353 -77.7350 -41.1123 -41.0478 -41.0351 -41.0347 -41.0344
   -41.0339 -40.9723 -40.9711 -40.9565  -4.9275  -4.8346  -4.8322  -4.8157
    -4.8150  -4.7705  -4.7452  -4.7438  -4.7051  -4.7038  -4.6669  -4.6662
    -4.6583  -4.6560  -4.6136   5.4245   9.8762  11.1323  12.5564  12.8878
    13.3596  13.7007  14.0895  14.2397  14.2425  14.6790  14.6892  15.0849
    15.1279  16.2034  16.2160  16.2276  16.2698  16.3150  17.1393  17.3390
    18.0045  18.0427  19.5420  20.1704  21.4996  21.7081  22.3208  22.3843
    23.1464  24.1058  25.3601  25.5553  25.8060  26.3106  26.4209  27.3303
    27.5375  28.5741  32.0457  32.6154  32.7444  33.6051  34.0431  34.1108
    34.7561  34.9151  35.3214  36.1831  36.6612  36.8105  37.4424  38.0340

          k = 0.0417 0.0241 0.0000 ( 10023 PWs)   bands (ev):

   -77.7478 -77.7351 -77.7350 -41.1136 -41.0479 -41.0349 -41.0346 -41.0346
   -41.0344 -40.9711 -40.9708 -40.9560  -4.9280  -4.8302  -4.8296  -4.8147
    -4.8146  -4.7679  -4.7463  -4.7459  -4.7089  -4.7085  -4.6679  -4.6677
    -4.6565  -4.6560  -4.6132   5.3858   9.9012  11.3890  12.6464  12.7469
    13.3500  13.6966  14.0880  14.1559  14.1570  14.6786  14.6809  15.1047
    15.1155  16.2016  16.2073  16.2290  16.2725  16.2840  17.1382  17.2581
    17.9816  17.9898  19.5003  20.1895  21.6646  21.7179  22.4131  22.8127
    23.1772  23.6915  25.2889  25.3514  25.6463  26.2166  26.2441  27.6314
    27.7133  28.7523  32.0299  32.1740  32.3366  34.2510  34.3180  34.3899
    34.9992  35.2592  35.3601  36.3832  36.8617  36.9623  37.2100  37.7228

          k = 0.0000 0.0000 0.0000 ( 10021 PWs)   bands (ev):

   -77.7478 -77.7351 -77.7350 -41.1140 -41.0480 -41.0349 -41.0349 -41.0345
   -41.0344 -40.9708 -40.9708 -40.9559  -4.9281  -4.8287  -4.8287  -4.8144
    -4.8144  -4.7669  -4.7467  -4.7467  -4.7103  -4.7103  -4.6682  -4.6682
    -4.6559  -4.6559  -4.6131   5.3729   9.9089  11.4956  12.6799  12.6800
    13.3468  13.6994  14.0874  14.1238  14.1239  14.6784  14.6784  15.1113
    15.1114  16.2002  16.2003  16.2330  16.2738  16.2739  17.1381  17.2290
    17.9744  17.9745  19.4869  20.1953  21.7210  21.7211  22.4529  23.1879
    23.1880  23.3217  25.2649  25.2650  25.5946  26.1846  26.1847  27.7548
    27.7548  28.8560  31.9947  31.9947  32.2107  34.4078  34.5020  34.5020
    35.1485  35.3904  35.3904  36.4690  36.8374  36.8374  37.3935  37.6452

          k = 0.0000 0.0000 0.0516 ( 10021 PWs)   bands (ev):

   -77.7478 -77.7351 -77.7350 -41.1140 -41.0480 -41.0349 -41.0349 -41.0345
   -41.0344 -40.9708 -40.9708 -40.9559  -4.9278  -4.8286  -4.8286  -4.8146
    -4.8146  -4.7665  -4.7475  -4.7475  -4.7100  -4.7100  -4.6677  -4.6677
    -4.6559  -4.6559  -4.6130   5.3876   9.8967  11.4846  12.6962  12.6963
    13.3705  13.5628  14.1273  14.1274  14.1784  14.6784  14.6784  15.1134
    15.1135  16.2003  16.2004  16.2323  16.2724  16.2725  17.1382  17.2337
    17.9519  17.9520  19.5657  20.1313  21.6723  21.6724  22.1230  23.0474
    23.0475  23.6756  25.4481  25.4482  25.7021  26.2312  26.2314  27.8100
    27.8100  28.8742  31.9939  31.9939  32.2117  34.3879  34.4463  34.4463
    35.1527  35.3616  35.3616  36.3423  36.8512  36.8512  37.3277  37.4491

          k = 0.0000 0.0000 0.1033 ( 10003 PWs)   bands (ev):

   -77.7478 -77.7351 -77.7350 -41.1139 -41.0480 -41.0349 -41.0349 -41.0345
   -41.0344 -40.9708 -40.9708 -40.9559  -4.9270  -4.8284  -4.8284  -4.8152
    -4.8152  -4.7653  -4.7499  -4.7499  -4.7093  -4.7093  -4.6663  -4.6663
    -4.6560  -4.6559  -4.6127   5.4318   9.8580  11.4534  12.7447  12.7448
    13.3015  13.4395  14.1374  14.1375  14.3141  14.6783  14.6783  15.1198
    15.1199  16.2006  16.2007  16.2300  16.2683  16.2684  17.1382  17.2422
    17.8842  17.8843  19.7749  19.9789  21.5353  21.5354  21.5786  22.7272
    22.7273  24.2914  25.8966  25.8967  26.0083  26.3616  26.3617  27.9760
    27.9761  28.9287  31.9915  31.9915  32.2140  34.2762  34.2762  34.3295
    35.1649  35.2808  35.2808  36.0155  36.8894  36.8895  37.0481  37.1605

          k = 0.0000 0.0000 0.1549 (  9991 PWs)   bands (ev):

   -77.7478 -77.7351 -77.7350 -41.1139 -41.0480 -41.0349 -41.0349 -41.0345
   -41.0344 -40.9708 -40.9708 -40.9559  -4.9257  -4.8281  -4.8281  -4.8161
    -4.8161  -4.7635  -4.7535  -4.7534  -4.7082  -4.7082  -4.6642  -4.6642
    -4.6560  -4.6560  -4.6122   5.5051   9.7873  11.4072  12.8250  12.8251
    13.0153  13.5484  14.1533  14.1534  14.4237  14.6782  14.6782  15.1308
    15.1309  16.2011  16.2012  16.2263  16.2619  16.2620  17.1382  17.2430
    17.7703  17.7704  19.6640  20.2142  21.0228  21.3322  21.3324  22.3594
    22.3595  24.9653  26.4752  26.4784  26.4785  26.5542  26.5542  28.2520
    28.2520  29.0192  31.9881  31.9881  32.2160  33.9919  33.9919  34.2361
    35.1616  35.1616  35.1847  35.5792  36.4279  36.9454  36.9454  36.9593

          k = 0.0000 0.0000 0.2066 (  9960 PWs)   bands (ev):

   -77.7478 -77.7351 -77.7350 -41.1139 -41.0481 -41.0349 -41.0349 -41.0345
   -41.0344 -40.9708 -40.9708 -40.9559  -4.9239  -4.8277  -4.8277  -4.8174
    -4.8173  -4.7611  -4.7579  -4.7579  -4.7067  -4.7067  -4.6617  -4.6617
    -4.6561  -4.6561  -4.6116   5.6073   9.6768  11.3518  12.7423  12.9362
    12.9363  13.6903  14.1733  14.1734  14.5041  14.6779  14.6779  15.1470
    15.1471  16.2015  16.2016  16.2216  16.2537  16.2538  17.1383  17.2256
    17.6099  17.6100  19.3787  20.4847  20.7129  21.0887  21.0888  22.0074
    22.0075  25.6671  26.7889  26.7890  27.0631  27.1285  27.1286  28.6318
    28.6319  29.1450  31.9848  31.9848  32.2131  33.6097  33.6097  34.1086
    35.0185  35.0185  35.0940  35.2112  35.6085  36.8690  36.8690  37.0128

          k = 0.0000 0.0000 0.2582 (  9954 PWs)   bands (ev):

   -77.7478 -77.7351 -77.7350 -41.1138 -41.0482 -41.0349 -41.0349 -41.0345
   -41.0344 -40.9708 -40.9708 -40.9559  -4.9219  -4.8272  -4.8272  -4.8188
    -4.8188  -4.7628  -4.7628  -4.7584  -4.7048  -4.7048  -4.6591  -4.6591
    -4.6563  -4.6563  -4.6108   5.7377   9.5191  11.2929  12.5073  13.0770
    13.0771  13.8578  14.1956  14.1957  14.5625  14.6773  14.6773  15.1687
    15.1688  16.2017  16.2018  16.2161  16.2443  16.2444  17.1383  17.1833
    17.4050  17.4051  19.0901  19.9730  20.8275  20.8276  21.3165  21.6974
    21.6975  26.3856  27.0545  27.0546  27.7396  27.8160  27.8161  29.1036
    29.1037  29.3054  31.9832  31.9833  32.1927  33.1585  33.1585  33.9265
    34.5915  34.7610  34.8634  34.8634  35.2432  36.8742  36.8742  37.0876

          k = 0.0000 0.0000 0.3099 (  9972 PWs)   bands (ev):

   -77.7478 -77.7351 -77.7350 -41.1138 -41.0483 -41.0350 -41.0349 -41.0345
   -41.0343 -40.9708 -40.9708 -40.9559  -4.9198  -4.8267  -4.8267  -4.8203
    -4.8203  -4.7678  -4.7678  -4.7554  -4.7028  -4.7028  -4.6566  -4.6566
    -4.6565  -4.6565  -4.6101   5.8955   9.3117  11.2351  12.3241  13.2453
    13.2454  14.0441  14.2182  14.2183  14.6057  14.6762  14.6762  15.1958
    15.1958  16.2011  16.2012  16.2103  16.2345  16.2345  17.1128  17.1384
    17.1612  17.1613  18.8296  19.4929  20.5670  20.5671  21.4389  21.4390
    21.9995  27.1122  27.3471  27.3472  28.4795  28.5210  28.5211  29.4993
    29.6523  29.6524  31.9868  31.9869  32.1140  32.6669  32.6669  33.5428
    34.0883  34.1358  34.7037  34.7037  35.2792  36.9524  36.9524  37.0984

          k = 0.0000 0.0000 0.3615 (  9936 PWs)   bands (ev):

   -77.7478 -77.7351 -77.7350 -41.1138 -41.0483 -41.0350 -41.0350 -41.0345
   -41.0343 -40.9708 -40.9708 -40.9559  -4.9176  -4.8261  -4.8261  -4.8218
    -4.8218  -4.7726  -4.7726  -4.7524  -4.7006  -4.7006  -4.6571  -4.6571
    -4.6542  -4.6542  -4.6093   6.0794   9.0595  11.1818  12.1951  13.4383
    13.4383  14.2394  14.2395  14.2415  14.6393  14.6742  14.6742  15.2271
    15.2272  16.1983  16.1984  16.2044  16.2248  16.2249  16.8890  16.8891
    17.0147  17.1384  18.6151  19.0500  20.3217  20.3218  21.2327  21.2327
    22.7436  27.6665  27.6665  27.8358  29.2239  29.2240  29.2588  29.7255
    30.2627  30.2628  31.8338  32.0017  32.0017  32.1558  32.1558  32.9950
    33.5937  33.8765  34.5420  34.5420  35.3175  36.9443  37.0820  37.0820

          k = 0.0000 0.0000 0.4132 (  9966 PWs)   bands (ev):

   -77.7478 -77.7351 -77.7350 -41.1137 -41.0484 -41.0350 -41.0350 -41.0345
   -41.0343 -40.9708 -40.9708 -40.9559  -4.9156  -4.8256  -4.8256  -4.8232
    -4.8232  -4.7769  -4.7769  -4.7497  -4.6984  -4.6984  -4.6576  -4.6576
    -4.6522  -4.6522  -4.6085   6.2870   8.7742  11.1355  12.1133  13.6512
    13.6512  14.2576  14.2577  14.4411  14.6665  14.6705  14.6705  15.2606
    15.2606  16.1889  16.1890  16.1990  16.2159  16.2160  16.6060  16.6061
    16.8975  17.1385  18.4534  18.6516  20.1034  20.1035  21.0750  21.0750
    23.5340  28.0128  28.0129  28.5398  29.8979  29.8980  29.9820  30.0220
    30.9198  30.9199  31.2230  31.6400  31.6400  32.0400  32.0401  32.7337
    33.1142  33.7216  34.3758  34.3758  35.3564  36.7720  37.2297  37.2297

          k = 0.0000 0.0000 0.4648 (  9996 PWs)   bands (ev):

   -77.7478 -77.7351 -77.7350 -41.1137 -41.0485 -41.0350 -41.0350 -41.0345
   -41.0343 -40.9708 -40.9708 -40.9559  -4.9139  -4.8251  -4.8251  -4.8244
    -4.8243  -4.7805  -4.7805  -4.7473  -4.6965  -4.6965  -4.6582  -4.6582
    -4.6506  -4.6506  -4.6079   6.5145   8.4718  11.0980  12.0669  13.8765
    13.8765  14.2721  14.2722  14.6306  14.6634  14.6634  14.6888  15.2930
    15.2930  16.1443  16.1444  16.1943  16.2085  16.2085  16.3580  16.3581
    16.7770  17.1385  18.3085  18.3409  19.9219  19.9220  20.9602  20.9603
    24.3557  28.3861  28.3861  29.1967  30.1056  30.2663  30.4968  30.4969
    31.1036  31.1242  31.1242  31.6125  31.6126  32.1279  32.1279  32.6547
    32.6687  33.6005  34.1974  34.1975  35.3954  36.5426  36.9873  36.9874

          k = 0.0000 0.0000 0.5164 (  9966 PWs)   bands (ev):

   -77.7478 -77.7351 -77.7350 -41.1136 -41.0485 -41.0350 -41.0350 -41.0344
   -41.0343 -40.9708 -40.9708 -40.9559  -4.9126  -4.8253  -4.8253  -4.8248
    -4.8247  -4.7832  -4.7832  -4.7454  -4.6949  -4.6949  -4.6587  -4.6587
    -4.6494  -4.6494  -4.6074   6.7529   8.1719  11.0704  12.0439  14.1001
    14.1002  14.2825  14.2826  14.6491  14.6492  14.7064  14.7929  15.3203
    15.3204  15.9746  15.9747  16.1908  16.2028  16.2029  16.2598  16.2599
    16.6726  17.1386  18.0370  18.2693  19.7855  19.7856  20.8827  20.8828
    25.1860  28.7852  28.7852  29.2941  29.7602  30.5727  30.6239  30.6239
    30.9465  30.9466  31.8180  32.2224  32.3057  32.3058  32.3060  32.3060
    32.6664  33.5055  33.9979  33.9980  35.4365  36.1808  36.1999  36.2000

          k = 0.0000 0.0000 0.5681 (  9960 PWs)   bands (ev):

   -77.7478 -77.7351 -77.7350 -41.1136 -41.0486 -41.0350 -41.0350 -41.0344
   -41.0343 -40.9708 -40.9708 -40.9559  -4.9118  -4.8258  -4.8258  -4.8245
    -4.8245  -4.7849  -4.7849  -4.7443  -4.6938  -4.6938  -4.6591  -4.6590
    -4.6487  -4.6487  -4.6071   6.9758   7.9090  11.0536  12.0343  14.2887
    14.2888  14.2935  14.2935  14.6215  14.6216  14.7180  14.9056  15.3387
    15.3388  15.7888  15.7889  16.1885  16.1993  16.1994  16.2425  16.2426
    16.6020  17.1386  17.8591  18.2299  19.7008  19.7009  20.8381  20.8381
    25.9607  28.4862  29.2071  29.2071  30.1395  30.1395  30.1580  30.8821
    31.1921  31.1921  31.8372  32.4476  32.5631  32.5631  32.7146  32.9340
    32.9341  33.4364  33.7881  33.7882  35.4861  35.4948  35.4949  35.7126

          k = 0.0000 0.0000 0.6197 (  9948 PWs)   bands (ev):

   -77.7478 -77.7351 -77.7350 -41.1136 -41.0486 -41.0350 -41.0350 -41.0344
   -41.0343 -40.9708 -40.9708 -40.9559  -4.9115  -4.8260  -4.8260  -4.8244
    -4.8244  -4.7855  -4.7855  -4.7439  -4.6935  -4.6935  -4.6592  -4.6592
    -4.6485  -4.6485  -4.6070   7.0885   7.7824  11.0479  12.0319  14.2907
    14.2908  14.3864  14.3865  14.5952  14.5954  14.7220  14.9465  15.3452
    15.3453  15.7126  15.7127  16.1878  16.1981  16.1982  16.2392  16.2393
    16.5770  17.1386  17.7965  18.2175  19.6720  19.6722  20.8235  20.8235
    26.3777  28.0554  29.5825  29.5825  29.7431  29.7431  30.3049  31.0704
    31.2631  31.2632  31.6236  32.6032  32.7122  32.7123  32.8751  33.2446
    33.2447  33.4013  33.6730  33.6731  35.1577  35.1578  35.4630  35.5250

 ------ SPIN DOWN ----------


          k = 0.0000 0.0000 0.0000 ( 10021 PWs)   bands (ev):

   -77.7224 -77.7097 -77.7096 -41.0719 -41.0259 -41.0124 -41.0123 -40.9972
   -40.9972 -40.9327 -40.9327 -40.9223  -4.9287  -4.8291  -4.8291  -4.8152
    -4.8151  -4.7674  -4.7470  -4.7470  -4.7107  -4.7107  -4.6687  -4.6687
    -4.6563  -4.6563  -4.6137   5.3723   9.9140  11.4947  12.6842  12.6843
    13.3603  13.7386  14.0863  14.1230  14.1231  14.6925  14.6925  15.1348
    15.1348  16.2619  16.2660  16.2661  16.2980  16.2981  17.1482  17.2661
    18.0029  18.0030  19.4993  20.1924  21.7201  21.7202  22.4546  23.1892
    23.1893  23.3304  25.2714  25.2715  25.5979  26.1879  26.1880  27.7547
    27.7547  28.8592  31.9958  31.9959  32.2180  34.4065  34.5019  34.5019
    35.1454  35.3887  35.3887  36.4742  36.8394  36.8394  37.3937  37.6483

          k = 0.0278 0.0481 0.0000 ( 10021 PWs)   bands (ev):

   -77.7223 -77.7097 -77.7096 -41.0714 -41.0258 -41.0125 -41.0123 -40.9972
   -40.9968 -40.9333 -40.9328 -40.9225  -4.9285  -4.8312  -4.8303  -4.8156
    -4.8154  -4.7688  -4.7465  -4.7460  -4.7089  -4.7084  -4.6683  -4.6681
    -4.6571  -4.6563  -4.6138   5.3895   9.9036  11.3558  12.6401  12.7700
    13.3646  13.7331  14.0872  14.1674  14.1692  14.6928  14.6958  15.1258
    15.1403  16.2566  16.2680  16.2753  16.2961  16.3116  17.1483  17.3038
    18.0127  18.0226  19.5172  20.1848  21.6470  21.7140  22.4032  22.7504
    23.1759  23.7612  25.2986  25.3897  25.6664  26.2313  26.2661  27.5851
    27.7072  28.7245  32.0718  32.1761  32.4093  34.1987  34.2856  34.3154
    34.9753  35.2265  35.3408  36.3614  36.8210  37.0337  37.1706  37.7629

          k = 0.0555 0.0962 0.0000 ( 10003 PWs)   bands (ev):

   -77.7222 -77.7099 -77.7096 -41.0697 -41.0256 -41.0127 -41.0123 -40.9973
   -40.9957 -40.9350 -40.9333 -40.9231  -4.9279  -4.8373  -4.8333  -4.8168
    -4.8160  -4.7720  -4.7452  -4.7432  -4.7038  -4.7026  -4.6670  -4.6661
    -4.6594  -4.6564  -4.6143   5.4411   9.8695  11.0342  12.5300  12.9358
    13.3773  13.7358  14.0897  14.2700  14.2909  14.6935  14.7067  15.0993
    15.1569  16.2400  16.2722  16.2903  16.2987  16.3538  17.1503  17.4059
    18.0498  18.0879  19.5735  20.1595  21.4487  21.6687  22.2535  22.3092
    23.1479  24.2264  25.3487  25.7076  25.8451  26.3690  26.4892  27.1475
    27.5794  28.4695  32.2790  32.4006  33.0584  33.5519  33.7113  33.9010
    34.8579  34.8971  35.2095  36.0205  36.5078  37.1131  37.1688  38.1833

          k = 0.0833 0.1443 0.0000 (  9989 PWs)   bands (ev):

   -77.7218 -77.7103 -77.7096 -41.0671 -41.0253 -41.0130 -41.0123 -40.9974
   -40.9939 -40.9377 -40.9339 -40.9241  -4.9269  -4.8465  -4.8372  -4.8184
    -4.8168  -4.7755  -4.7434  -4.7389  -4.6969  -4.6957  -4.6645  -4.6630
    -4.6626  -4.6565  -4.6151   5.5270   9.8046  10.6426  12.4027  13.0871
    13.3984  13.7633  14.0928  14.3714  14.4606  14.6948  14.7306  15.0566
    15.1842  16.2128  16.2727  16.2807  16.3283  16.4262  17.1589  17.5324
    18.1412  18.2176  19.6779  20.1112  21.1692  21.5300  21.7681  22.2872
    23.1325  24.6379  25.4001  25.8412  26.1459  26.6198  26.8307  26.8319
    27.4133  28.2278  32.3018  32.4824  33.0323  33.1032  33.2813  33.8979
    34.5746  34.8292  35.0218  35.4582  36.2862  37.0224  37.2355  38.1368

          k = 0.1111 0.1924 0.0000 ( 10007 PWs)   bands (ev):

   -77.7214 -77.7107 -77.7096 -41.0635 -41.0248 -41.0135 -41.0123 -40.9977
   -40.9914 -40.9415 -40.9349 -40.9254  -4.9258  -4.8577  -4.8411  -4.8200
    -4.8176  -4.7787  -4.7417  -4.7337  -4.6898  -4.6894  -4.6676  -4.6604
    -4.6578  -4.6565  -4.6160   5.6469   9.7008  10.2313  12.3034  13.2049
    13.4273  13.8141  14.0950  14.4396  14.6287  14.6968  14.7786  15.0007
    15.2218  16.1763  16.2600  16.2673  16.3582  16.5305  17.1776  17.6255
    18.3147  18.4374  19.8473  20.0350  20.8467  21.3005  21.3124  22.3667
    23.1563  24.9757  25.2829  25.4573  26.5745  26.9973  27.0392  27.2674
    27.3168  28.0579  31.5192  31.9436  32.5378  33.1177  33.4325  33.9966
    34.2711  34.8036  34.8278  35.5701  36.1042  36.9233  37.3070  38.0370

          k = 0.1389 0.2405 0.0000 ( 10015 PWs)   bands (ev):

   -77.7209 -77.7112 -77.7096 -41.0592 -41.0243 -41.0141 -41.0123 -40.9981
   -40.9882 -40.9460 -40.9361 -40.9269  -4.9245  -4.8697  -4.8443  -4.8213
    -4.8180  -4.7818  -4.7405  -4.7280  -4.6843  -4.6840  -4.6727  -4.6565
    -4.6543  -4.6521  -4.6171   5.8004   9.5546   9.8226  12.2608  13.2972
    13.4636  13.8814  14.0941  14.4626  14.6992  14.7575  14.8569  14.9361
    15.2689  16.1318  16.2257  16.2503  16.3865  16.6680  17.2067  17.6679
    18.5460  18.7657  19.9295  20.1020  20.5045  20.8541  21.0761  22.5111
    23.2352  24.5576  25.2450  25.5204  26.6769  27.2433  27.4928  27.5924
    27.7723  28.1322  30.6461  31.1420  31.7515  33.2401  33.4634  33.9735
    33.9812  34.5737  34.8810  35.9097  36.5157  36.8707  37.3825  37.7715

          k = 0.1666 0.2886 0.0000 ( 10007 PWs)   bands (ev):

   -77.7203 -77.7118 -77.7096 -41.0542 -41.0236 -41.0147 -41.0123 -40.9990
   -40.9843 -40.9510 -40.9375 -40.9286  -4.9234  -4.8814  -4.8460  -4.8221
    -4.8179  -4.7849  -4.7407  -4.7223  -4.6806  -4.6798  -4.6777  -4.6563
    -4.6467  -4.6462  -4.6183   5.9870   9.3706   9.4281  12.2858  13.3727
    13.5065  13.9568  14.0874  14.4498  14.7014  14.8335  14.8685  14.9585
    15.3247  16.0809  16.1689  16.2300  16.4133  16.8392  17.2453  17.6792
    18.7796  19.1942  19.7987  20.1489  20.4310  20.4530  20.8653  22.6911
    23.3734  23.8530  25.4700  25.5874  26.5352  27.1800  28.0798  28.1232
    28.3224  28.4640  29.8975  30.3909  30.9698  32.3907  33.6815  33.6868
    34.3440  34.5646  35.0901  35.7183  36.8699  37.2294  37.2474  37.2683

          k = 0.1944 0.3368 0.0000 ( 10007 PWs)   bands (ev):

   -77.7196 -77.7125 -77.7096 -41.0489 -41.0229 -41.0154 -41.0123 -41.0004
   -40.9800 -40.9560 -40.9391 -40.9305  -4.9227  -4.8919  -4.8460  -4.8222
    -4.8174  -4.7884  -4.7425  -4.7169  -4.6821  -4.6777  -4.6771  -4.6559
    -4.6407  -4.6389  -4.6192   6.2057   9.0544   9.1604  12.3764  13.4359
    13.5552  14.0269  14.0720  14.4180  14.7020  14.8044  14.8608  15.0738
    15.3880  16.0252  16.0954  16.2067  16.4393  17.0440  17.2968  17.6767
    18.9873  19.6499  19.6636  19.7898  20.0329  20.7373  20.8558  22.8857
    23.2527  23.5663  25.6481  25.6748  26.3743  27.0356  28.3352  28.5001
    28.7321  28.8580  29.8054  29.9107  30.2614  31.5252  33.3994  33.7054
    34.1219  35.1922  35.5115  35.5332  36.4071  36.6021  36.8683  37.1893

          k = 0.2222 0.3849 0.0000 (  9987 PWs)   bands (ev):

   -77.7189 -77.7132 -77.7096 -41.0432 -41.0222 -41.0162 -41.0123 -41.0026
   -40.9753 -40.9605 -40.9407 -40.9325  -4.9227  -4.9005  -4.8441  -4.8218
    -4.8163  -4.7926  -4.7460  -4.7119  -4.6856  -4.6757  -4.6751  -4.6554
    -4.6361  -4.6324  -4.6194   6.4550   8.7060   8.9383  12.5237  13.4882
    13.6087  14.0455  14.0638  14.3932  14.6994  14.7495  14.8510  15.1964
    15.4573  15.9663  16.0127  16.1812  16.4645  17.2815  17.3685  17.6702
    19.1633  19.4277  19.4922  19.6609  19.9760  20.8704  21.1912  22.8827
    23.0731  23.8040  25.6838  25.8762  26.2523  26.8987  27.6675  28.2396
    28.9875  29.4302  30.0232  30.1506  30.3104  30.7498  33.1319  33.5915
    33.9118  35.3049  35.6181  35.8698  35.8751  36.0439  36.7171  36.8905

          k = 0.2500 0.4330 0.0000 (  9981 PWs)   bands (ev):

   -77.7181 -77.7139 -77.7096 -41.0374 -41.0214 -41.0170 -41.0123 -41.0059
   -40.9705 -40.9641 -40.9423 -40.9347  -4.9238  -4.9064  -4.8403  -4.8207
    -4.8151  -4.7976  -4.7507  -4.7074  -4.6883  -4.6742  -4.6738  -4.6548
    -4.6327  -4.6287  -4.6180   6.7324   8.3857   8.7182  12.7168  13.5293
    13.6658  14.0070  14.0264  14.4101  14.6908  14.7081  14.8182  15.3212
    15.5305  15.9062  15.9260  16.1546  16.4887  17.4690  17.5498  17.6661
    19.0194  19.3158  19.3344  19.3608  19.9899  21.2500  21.3811  22.9323
    23.2277  24.0723  25.6677  26.0842  26.1947  26.6491  27.1287  27.6494
    28.4324  29.7864  30.1596  30.5389  30.8038  31.1968  32.8833  33.4223
    33.7162  34.8686  35.1119  35.1225  36.0764  36.1165  36.8047  36.8319

          k = 0.2777 0.4811 0.0000 (  9989 PWs)   bands (ev):

   -77.7174 -77.7147 -77.7096 -41.0317 -41.0206 -41.0177 -41.0124 -41.0101
   -40.9666 -40.9662 -40.9434 -40.9370  -4.9259  -4.9094  -4.8347  -4.8192
    -4.8141  -4.8036  -4.7555  -4.7034  -4.6907  -4.6733  -4.6730  -4.6542
    -4.6303  -4.6277  -4.6152   7.0326   8.0956   8.5137  12.9443  13.5584
    13.7251  13.9103  13.9579  14.4648  14.6711  14.6813  14.7795  15.4425
    15.6047  15.8375  15.8464  16.1292  16.5105  17.6056  17.6691  17.8449
    18.6448  18.9984  19.1853  19.5134  19.9046  21.0834  22.0401  23.2971
    23.3219  24.3487  25.5583  26.1293  26.1982  26.3049  27.0635  27.0827
    27.7822  29.0229  30.9038  31.2261  31.5424  31.9737  32.6593  33.2399
    33.5352  34.1709  34.3878  34.9055  35.4629  35.5948  37.3889  37.4959

          k = 0.3055 0.5292 0.0000 (  9969 PWs)   bands (ev):

   -77.7166 -77.7154 -77.7096 -41.0260 -41.0198 -41.0185 -41.0152 -41.0124
   -40.9679 -40.9631 -40.9435 -40.9394  -4.9279  -4.9107  -4.8275  -4.8173
    -4.8139  -4.8107  -4.7591  -4.6997  -4.6933  -4.6727  -4.6725  -4.6537
    -4.6289  -4.6279  -4.6130   7.3419   7.8372   8.3438  13.1910  13.5746
    13.7366  13.7850  13.9020  14.5288  14.6341  14.6676  14.7535  15.5550
    15.6754  15.7473  15.7889  16.1089  16.5274  17.6817  17.7822  18.1571
    18.2891  18.7092  19.0582  19.6495  19.8138  20.9135  22.7029  23.3408
    23.5966  24.5901  25.3308  25.8511  26.1272  26.5418  26.7926  27.1080
    27.1999  28.3770  31.6231  31.9054  32.2299  32.4920  32.7012  33.0839
    33.3564  33.5741  33.7002  34.6614  34.8517  35.0928  37.9434  38.2455

          k = 0.3333 0.5773 0.0000 (  9957 PWs)   bands (ev):

   -77.7161 -77.7160 -77.7096 -41.0206 -41.0205 -41.0192 -41.0191 -41.0124
   -40.9683 -40.9620 -40.9419 -40.9418  -4.9286  -4.9110  -4.8191  -4.8190
    -4.8152  -4.8152  -4.7605  -4.6963  -4.6963  -4.6725  -4.6725  -4.6535
    -4.6283  -4.6283  -4.6122   7.6112   7.6116   8.2601  13.3788  13.5778
    13.5778  13.8438  13.8439  14.5855  14.5855  14.6637  14.7457  15.6549
    15.6551  15.7351  15.7353  16.1002  16.5345  17.6955  17.9977  17.9982
    18.4485  18.4491  18.9919  19.7407  19.7407  20.8465  23.0839  23.4602
    23.4610  24.7022  25.2554  25.8962  25.8966  26.7964  26.7970  26.9586
    26.9594  28.1000  32.1017  32.1021  32.5468  32.6026  33.0593  33.0594
    33.1713  33.2990  33.2991  34.5209  34.5209  34.8731  38.3070  38.8600

          k = 0.3472 0.5532 0.0000 (  9967 PWs)   bands (ev):

   -77.7163 -77.7157 -77.7096 -41.0232 -41.0194 -41.0188 -41.0179 -41.0124
   -40.9682 -40.9622 -40.9431 -40.9404  -4.9284  -4.9109  -4.8236  -4.8165
    -4.8145  -4.8142  -4.7602  -4.6980  -4.6946  -4.6726  -4.6725  -4.6536
    -4.6284  -4.6282  -4.6124   7.5111   7.6896   8.2922  13.3045  13.5749
    13.6463  13.8155  13.8722  14.5608  14.6084  14.6645  14.7474  15.6081
    15.7001  15.7103  15.7581  16.1029  16.5322  17.6834  17.9060  18.1184
    18.3298  18.5465  19.0219  19.7144  19.7628  20.8635  23.0259  23.2426
    23.6585  24.6664  25.2521  25.8349  26.0040  26.7076  26.7955  26.9308
    27.1385  28.1576  31.9948  32.0652  32.4916  32.4927  32.9593  33.0298
    33.1764  33.3666  33.4983  34.5254  34.6082  34.9764  38.0808  38.7475

          k = 0.3611 0.5292 0.0000 (  9985 PWs)   bands (ev):

   -77.7166 -77.7154 -77.7096 -41.0258 -41.0198 -41.0185 -41.0153 -41.0124
   -40.9680 -40.9628 -40.9443 -40.9388  -4.9279  -4.9107  -4.8285  -4.8180
    -4.8132  -4.8099  -4.7592  -4.7000  -4.6930  -4.6727  -4.6725  -4.6537
    -4.6285  -4.6282  -4.6130   7.4194   7.7124   8.3907  13.1647  13.5695
    13.7650  13.7881  13.8995  14.5375  14.6272  14.6665  14.7525  15.5610
    15.6870  15.7424  15.7749  16.1115  16.5248  17.6369  17.8748  18.2186
    18.2450  18.5848  19.1207  19.6970  19.7707  20.9115  22.9033  22.9830
    23.8245  24.5587  25.2334  25.8541  26.0334  26.7051  26.7334  27.0690
    27.3575  28.3017  31.8213  31.8836  32.3133  32.3574  32.7321  32.9274
    33.1300  33.6475  33.8527  34.4766  34.8631  35.2626  37.6032  38.3262

          k = 0.3750 0.5051 0.0000 (  9981 PWs)   bands (ev):

   -77.7169 -77.7152 -77.7096 -41.0282 -41.0200 -41.0183 -41.0128 -41.0124
   -40.9677 -40.9637 -40.9455 -40.9371  -4.9270  -4.9102  -4.8335  -4.8198
    -4.8122  -4.8052  -4.7575  -4.7021  -4.6914  -4.6729  -4.6726  -4.6540
    -4.6286  -4.6282  -4.6138   7.3362   7.6970   8.5380  13.0031  13.5620
    13.7623  13.8893  13.9255  14.5160  14.6416  14.6694  14.7608  15.5139
    15.6654  15.7824  15.7856  16.1259  16.5116  17.5725  17.8889  18.1154
    18.3751  18.5800  19.2716  19.6907  19.7688  20.9825  22.7120  22.7426
    23.9290  24.3903  25.1992  25.8742  25.9615  26.7784  26.8847  27.2110
    27.6098  28.5040  31.5799  31.6494  32.1631  32.1739  32.4457  32.8049
    33.0799  34.0006  34.2534  34.4005  35.2152  35.6279  37.0708  37.8513

          k = 0.3889 0.4811 0.0000 (  9979 PWs)   bands (ev):

   -77.7171 -77.7149 -77.7096 -41.0306 -41.0203 -41.0180 -41.0124 -41.0104
   -40.9672 -40.9648 -40.9467 -40.9354  -4.9259  -4.9095  -4.8388  -4.8217
    -4.8113  -4.8006  -4.7554  -4.7045  -4.6899  -4.6732  -4.6727  -4.6543
    -4.6286  -4.6284  -4.6150   7.2617   7.6643   8.7123  12.8277  13.5529
    13.7383  13.9497  14.0109  14.4967  14.6517  14.6728  14.7722  15.4671
    15.6457  15.7906  15.8208  16.1454  16.4924  17.5131  17.9244  18.0204
    18.5052  18.5565  19.4493  19.6987  19.7624  21.0634  22.4527  22.5534
    23.9784  24.1811  25.1481  25.6292  26.1426  26.9086  27.1460  27.3560
    27.8910  28.7513  31.2957  31.4014  31.9234  32.0760  32.1343  32.6959
    33.0338  34.3104  34.3780  34.6736  35.6163  35.9954  36.5294  37.4122

          k = 0.4028 0.4570 0.0000 (  9995 PWs)   bands (ev):

   -77.7173 -77.7147 -77.7096 -41.0327 -41.0205 -41.0178 -41.0124 -41.0081
   -40.9667 -40.9659 -40.9478 -40.9337  -4.9248  -4.9083  -4.8442  -4.8236
    -4.8104  -4.7961  -4.7529  -4.7070  -4.6884  -4.6735  -4.6728  -4.6548
    -4.6286  -4.6285  -4.6163   7.1958   7.6264   8.9002  12.6428  13.5430
    13.7165  13.9721  14.1259  14.4798  14.6580  14.6765  14.7865  15.4211
    15.6279  15.7913  15.8584  16.1684  16.4677  17.4662  17.9341  17.9712
    18.5273  18.6301  19.6393  19.7253  19.7568  21.1323  22.2308  22.3426
    23.9494  23.9913  25.0581  25.3958  26.3715  27.0786  27.4401  27.5030
    28.1972  29.0371  30.9936  31.1545  31.6585  31.8142  32.0029  32.6044
    32.9928  34.2040  34.7620  35.1039  35.9787  36.0582  36.2282  37.1474

          k = 0.4166 0.4330 0.0000 (  9987 PWs)   bands (ev):

   -77.7175 -77.7145 -77.7096 -41.0346 -41.0208 -41.0175 -41.0124 -41.0060
   -40.9672 -40.9661 -40.9489 -40.9322  -4.9236  -4.9066  -4.8497  -4.8254
    -4.8097  -4.7919  -4.7500  -4.7097  -4.6869  -4.6738  -4.6730  -4.6553
    -4.6287  -4.6285  -4.6178   7.1386   7.5891   9.0938  12.4520  13.5328
    13.6971  13.9922  14.2319  14.4652  14.6608  14.6802  14.8033  15.3764
    15.6123  15.7890  15.8953  16.1932  16.4385  17.4322  17.8570  18.0250
    18.4979  18.7436  19.7563  19.7761  19.8340  21.1518  22.0854  22.1169
    23.7093  23.9847  24.8786  25.2501  26.6238  27.2760  27.6502  27.7415
    28.5231  29.3552  30.6866  30.9163  31.3868  31.4942  31.9452  32.5249
    32.9571  34.0723  35.1421  35.4706  35.5394  36.0982  36.4867  37.2922

          k = 0.4305 0.4089 0.0000 (  9993 PWs)   bands (ev):

   -77.7177 -77.7143 -77.7096 -41.0362 -41.0209 -41.0174 -41.0124 -41.0040
   -40.9684 -40.9655 -40.9499 -40.9309  -4.9227  -4.9044  -4.8552  -4.8270
    -4.8090  -4.7881  -4.7469  -4.7127  -4.6856  -4.6741  -4.6731  -4.6559
    -4.6289  -4.6283  -4.6194   7.0901   7.5552   9.2871  12.2603  13.5230
    13.6803  14.0099  14.3269  14.4530  14.6605  14.6838  14.8220  15.3338
    15.5989  15.7851  15.9319  16.2179  16.4062  17.4090  17.7897  18.0823
    18.4710  18.8394  19.7643  19.8562  20.0275  21.0856  21.8820  22.0537
    23.4716  23.9700  24.6306  25.1823  26.8806  27.4926  27.7951  28.0413
    28.8604  29.6959  30.3811  30.6921  31.1230  31.1828  31.8989  32.4515
    32.9268  33.9016  34.9754  35.5092  35.7941  35.9754  36.9334  37.6704

          k = 0.4444 0.3849 0.0000 ( 10005 PWs)   bands (ev):

   -77.7179 -77.7142 -77.7096 -41.0376 -41.0211 -41.0172 -41.0124 -41.0023
   -40.9695 -40.9649 -40.9509 -40.9297  -4.9219  -4.9015  -4.8608  -4.8285
    -4.8084  -4.7847  -4.7435  -4.7158  -4.6844  -4.6744  -4.6733  -4.6564
    -4.6290  -4.6281  -4.6209   7.0505   7.5262   9.4737  12.0740  13.5142
    13.6664  14.0247  14.4092  14.4431  14.6574  14.6869  14.8418  15.2943
    15.5879  15.7805  15.9676  16.2409  16.3725  17.3940  17.7329  18.1392
    18.4479  18.9136  19.7836  19.9684  20.2131  20.9472  21.6428  22.1223
    23.2465  23.9534  24.3704  25.1442  27.1272  27.7221  27.9335  28.3370
    29.1955  30.0336  30.0813  30.4876  30.8821  30.8995  31.8623  32.3785
    32.9019  33.6783  34.5181  35.5084  35.8522  36.4058  37.3797  38.1021

          k = 0.4583 0.3608 0.0000 ( 10017 PWs)   bands (ev):

   -77.7180 -77.7141 -77.7096 -41.0387 -41.0212 -41.0171 -41.0124 -41.0009
   -40.9705 -40.9644 -40.9517 -40.9288  -4.9214  -4.8982  -4.8662  -4.8296
    -4.8080  -4.7820  -4.7401  -4.7190  -4.6834  -4.6746  -4.6734  -4.6569
    -4.6291  -4.6278  -4.6223   7.0196   7.5030   9.6452  11.9019  13.5067
    13.6554  14.0365  14.4355  14.4779  14.6515  14.6895  14.8612  15.2595
    15.5792  15.7762  16.0015  16.2607  16.3393  17.3850  17.6876  18.1913
    18.4293  18.9662  19.8155  20.1111  20.3823  20.7824  21.4040  22.2443
    23.0449  23.9384  24.1233  25.1191  27.3494  27.9585  28.0592  28.6287
    29.5039  29.7915  30.2439  30.3100  30.6854  30.7589  31.8343  32.3000
    32.8826  33.4011  34.1182  35.2910  36.1565  36.8196  37.8164  38.5380

          k = 0.4722 0.3368 0.0000 ( 10022 PWs)   bands (ev):

   -77.7180 -77.7140 -77.7096 -41.0395 -41.0213 -41.0170 -41.0124 -40.9998
   -40.9713 -40.9639 -40.9523 -40.9281  -4.9211  -4.8945  -4.8713  -4.8305
    -4.8077  -4.7799  -4.7365  -4.7224  -4.6826  -4.6748  -4.6735  -4.6574
    -4.6292  -4.6273  -4.6236   6.9975   7.4862   9.7890  11.7572  13.5011
    13.6475  14.0451  14.4300  14.5325  14.6424  14.6915  14.8782  15.2314
    15.5730  15.7727  16.0315  16.2759  16.3095  17.3800  17.6544  18.2336
    18.4158  18.9999  19.8580  20.2786  20.5225  20.6275  21.1704  22.3797
    22.8807  23.9078  23.9268  25.1025  27.5312  28.1629  28.1923  28.9159
    29.5202  29.7404  30.1048  30.1688  30.5676  30.9641  31.8145  32.2135
    32.8687  33.0930  33.8023  35.1476  36.4020  37.1946  38.2267  38.9475

          k = 0.4861 0.3127 0.0000 ( 10010 PWs)   bands (ev):

   -77.7181 -77.7140 -77.7096 -41.0400 -41.0213 -41.0170 -41.0123 -40.9991
   -40.9718 -40.9636 -40.9527 -40.9277  -4.9209  -4.8910  -4.8757  -4.8310
    -4.8075  -4.7786  -4.7330  -4.7258  -4.6821  -4.6749  -4.6735  -4.6576
    -4.6293  -4.6268  -4.6247   6.9843   7.4760   9.8879  11.6575  13.4977
    13.6428  14.0503  14.4268  14.5731  14.6292  14.6927  14.8902  15.2128
    15.5692  15.7704  16.0535  16.2854  16.2875  17.3775  17.6342  18.2614
    18.4076  19.0185  19.9005  20.4589  20.5113  20.6176  20.9517  22.4917
    22.7709  23.7506  23.9195  25.0929  27.6531  28.2329  28.3987  29.1915
    29.2916  29.8507  29.8571  30.0762  30.5516  31.2414  31.8028  32.1329
    32.8136  32.8604  33.5997  35.0685  36.5647  37.4825  38.5664  39.2779

          k = 0.5000 0.2887 0.0000 ( 10026 PWs)   bands (ev):

   -77.7181 -77.7139 -77.7096 -41.0401 -41.0214 -41.0170 -41.0123 -40.9988
   -40.9720 -40.9635 -40.9529 -40.9276  -4.9208  -4.8892  -4.8777  -4.8312
    -4.8074  -4.7782  -4.7296  -4.7291  -4.6820  -4.6750  -4.6736  -4.6577
    -4.6293  -4.6263  -4.6253   6.9799   7.4726   9.9236  11.6214  13.4965
    13.6412  14.0521  14.4257  14.5946  14.6169  14.6931  14.8946  15.2062
    15.5679  15.7696  16.0619  16.2790  16.2887  17.3767  17.6274  18.2710
    18.4048  19.0243  19.9201  20.4661  20.5825  20.6516  20.8154  22.5371
    22.7319  23.6904  23.9171  25.0898  27.6965  28.2579  28.4971  29.1858
    29.3696  29.6755  29.8817  30.0436  30.5690  31.3708  31.7989  32.0970
    32.6865  32.8576  33.5302  35.0434  36.6220  37.5977  38.7171  39.4181

          k = 0.4583 0.2646 0.0000 ( 10008 PWs)   bands (ev):

   -77.7183 -77.7138 -77.7096 -41.0409 -41.0215 -41.0168 -41.0123 -40.9987
   -40.9729 -40.9628 -40.9519 -40.9276  -4.9209  -4.8884  -4.8770  -4.8310
    -4.8079  -4.7783  -4.7294  -4.7292  -4.6819  -4.6753  -4.6737  -4.6577
    -4.6312  -4.6261  -4.6250   6.8499   7.6235   9.9278  11.6333  13.4874
    13.6331  14.0557  14.4070  14.5951  14.6257  14.7010  14.8922  15.1951
    15.5451  15.7936  16.0678  16.2862  16.2887  17.3730  17.5462  18.2365
    18.5039  19.0714  19.7618  20.3240  20.6571  20.7193  20.9390  22.5104
    22.7378  23.6750  23.7456  25.4591  27.5973  27.8559  28.9104  28.9880
    29.0343  29.7950  30.2336  30.2630  30.3957  31.4251  31.5743  31.7910
    32.8831  33.2630  33.4171  35.3111  36.5471  37.6828  38.5328  39.5091

          k = 0.4167 0.2406 0.0000 (  9988 PWs)   bands (ev):

   -77.7186 -77.7134 -77.7096 -41.0431 -41.0219 -41.0164 -41.0123 -40.9985
   -40.9753 -40.9608 -40.9497 -40.9275  -4.9212  -4.8862  -4.8750  -4.8303
    -4.8092  -4.7785  -4.7302  -4.7281  -4.6817  -4.6761  -4.6743  -4.6576
    -4.6347  -4.6285  -4.6231   6.6241   7.9115   9.9403  11.6687  13.4616
    13.6109  14.0649  14.3589  14.5964  14.6440  14.7244  14.8835  15.1629
    15.4953  15.8468  16.0847  16.2888  16.3059  17.3615  17.3729  18.1529
    18.7294  19.1882  19.4600  20.0966  20.6747  20.9571  21.1009  22.3363
    22.7553  23.4608  23.9110  26.1600  27.3540  27.3739  28.5522  28.6230
    29.4055  30.0425  30.1370  30.6928  30.7636  30.8268  31.2197  31.9803
    33.1583  33.2385  33.9767  35.9255  36.3759  37.8803  38.1986  39.3982

          k = 0.3750 0.2165 0.0000 (  9984 PWs)   bands (ev):

   -77.7191 -77.7129 -77.7096 -41.0463 -41.0224 -41.0159 -41.0123 -40.9983
   -40.9784 -40.9578 -40.9467 -40.9273  -4.9216  -4.8826  -4.8716  -4.8292
    -4.8109  -4.7787  -4.7314  -4.7270  -4.6810  -4.6774  -4.6752  -4.6575
    -4.6390  -4.6323  -4.6215   6.3975   8.2396   9.9621  11.7270  13.4230
    13.5793  14.0760  14.2919  14.5974  14.6614  14.7615  14.8650  15.1122
    15.4381  15.9093  16.1106  16.2889  16.3331  17.1810  17.3415  18.0510
    19.0035  19.1416  19.3148  19.9064  20.7087  21.1444  21.1743  22.0193
    22.7839  23.5778  24.1839  26.9096  26.9270  27.0496  28.0927  28.2392
    29.6675  29.7434  30.4614  30.5198  30.5769  31.1845  31.3013  32.4521
    33.0653  33.4650  34.7561  36.1765  36.6845  37.8377  38.1104  38.8244

          k = 0.3333 0.1925 0.0000 (  9990 PWs)   bands (ev):

   -77.7197 -77.7124 -77.7096 -41.0502 -41.0230 -41.0153 -41.0123 -40.9980
   -40.9817 -40.9541 -40.9437 -40.9270  -4.9223  -4.8776  -4.8671  -4.8277
    -4.8128  -4.7789  -4.7331  -4.7267  -4.6794  -4.6794  -4.6767  -4.6573
    -4.6440  -4.6373  -4.6200   6.1877   8.5860   9.9950  11.8070  13.3760
    13.5429  14.0857  14.2111  14.5963  14.6738  14.8095  14.8320  15.0461
    15.3811  15.9732  16.1424  16.2890  16.3611  16.9969  17.3125  17.9488
    18.8458  19.2898  19.3189  19.8775  20.7684  20.9365  21.3451  21.8541
    22.8230  23.9034  24.5531  26.4678  26.7344  27.4446  27.8680  27.9007
    29.2593  29.4377  29.9576  30.7968  30.9844  31.7066  31.7915  32.9570
    33.0032  33.7516  35.5549  35.9868  37.4271  37.4626  37.9585  38.1503

          k = 0.2917 0.1684 0.0000 ( 10010 PWs)   bands (ev):

   -77.7203 -77.7118 -77.7096 -41.0543 -41.0236 -41.0147 -41.0123 -40.9978
   -40.9849 -40.9501 -40.9408 -40.9266  -4.9232  -4.8715  -4.8615  -4.8259
    -4.8145  -4.7789  -4.7351  -4.7277  -4.6820  -4.6788  -4.6766  -4.6571
    -4.6494  -4.6432  -4.6187   5.9993   8.9373  10.0445  11.9072  13.3248
    13.5056  14.0923  14.1194  14.5899  14.6804  14.7808  14.8648  14.9682
    15.3275  16.0349  16.1765  16.2892  16.3824  16.8303  17.2752  17.8544
    18.5921  19.1423  19.5618  20.0461  20.5750  20.8697  21.4705  21.8679
    22.8711  24.3377  24.9979  26.0488  26.4359  27.1328  27.5198  28.3375
    28.6768  29.1613  29.5998  31.3456  31.4786  32.1385  32.2484  33.1016
    33.4781  34.0506  35.7812  36.3925  36.8293  36.9783  37.5788  38.3957

          k = 0.2500 0.1443 0.0000 ( 10012 PWs)   bands (ev):

   -77.7208 -77.7113 -77.7096 -41.0584 -41.0242 -41.0141 -41.0123 -40.9976
   -40.9879 -40.9461 -40.9383 -40.9261  -4.9243  -4.8644  -4.8552  -4.8240
    -4.8157  -4.7786  -4.7373  -4.7300  -4.6853  -4.6818  -4.6730  -4.6570
    -4.6547  -4.6493  -4.6175   5.8344   9.2726  10.1249  12.0249  13.2704
    13.4700  14.0202  14.0956  14.5724  14.6742  14.7171  14.8844  14.9231
    15.2788  16.0921  16.2089  16.2895  16.3900  16.6852  17.2340  17.7684
    18.3906  18.8880  19.7918  20.1519  20.3855  21.0353  21.5592  21.9378
    22.9262  24.8298  25.4802  25.6503  26.1837  26.7565  27.2003  28.1026
    28.1399  28.9209  30.0173  31.9292  31.9852  32.2762  32.8031  33.4014
    33.9865  34.3423  35.6253  36.0820  36.1715  37.1755  37.2476  38.6187

          k = 0.2083 0.1203 0.0000 ( 10008 PWs)   bands (ev):

   -77.7212 -77.7108 -77.7096 -41.0622 -41.0247 -41.0136 -41.0123 -40.9975
   -40.9906 -40.9424 -40.9363 -40.9254  -4.9253  -4.8567  -4.8486  -4.8219
    -4.8164  -4.7778  -4.7397  -4.7333  -4.6896  -4.6861  -4.6690  -4.6595
    -4.6568  -4.6552  -4.6164   5.6939   9.5520  10.2686  12.1565  13.2099
    13.4380  13.9199  14.0959  14.5321  14.6013  14.6964  14.8066  14.9802
    15.2362  16.1431  16.2363  16.2900  16.3802  16.5633  17.1965  17.6848
    18.2421  18.6109  19.9267  19.9596  20.6457  21.2813  21.6207  22.0241
    22.9858  25.2669  25.3354  25.7662  26.1962  26.4129  26.9144  27.5703
    27.6321  28.7232  30.8041  32.3126  32.4858  32.5165  33.3630  33.7766
    34.3562  34.4453  35.4579  35.4922  35.6484  37.0226  37.8148  38.4936

          k = 0.1667 0.0962 0.0000 ( 10010 PWs)   bands (ev):

   -77.7217 -77.7104 -77.7096 -41.0655 -41.0251 -41.0132 -41.0123 -40.9974
   -40.9929 -40.9391 -40.9348 -40.9245  -4.9264  -4.8489  -4.8423  -4.8198
    -4.8165  -4.7762  -4.7419  -4.7372  -4.6947  -4.6916  -4.6649  -4.6632
    -4.6603  -4.6566  -4.6155   5.5784   9.7336  10.5082  12.2962  13.1336
    13.4107  13.8299  14.0943  14.4564  14.4904  14.6945  14.7506  15.0321
    15.2004  16.1864  16.2560  16.2908  16.3552  16.4652  17.1696  17.5921
    18.1397  18.3595  19.7487  20.0673  20.9524  21.6026  21.6625  22.1183
    23.0459  24.8898  25.6341  25.7612  26.1272  26.6673  26.6713  27.1003
    27.1805  28.5794  31.5848  32.3952  32.9338  33.0871  33.9170  33.9495
    34.1531  34.1966  35.3909  35.4624  35.7687  36.8681  38.1054  38.1371

          k = 0.1250 0.0722 0.0000 ( 10000 PWs)   bands (ev):

   -77.7220 -77.7101 -77.7096 -41.0683 -41.0254 -41.0129 -41.0123 -40.9973
   -40.9948 -40.9364 -40.9338 -40.9237  -4.9273  -4.8414  -4.8368  -4.8180
    -4.8162  -4.7739  -4.7440  -4.7409  -4.7003  -4.6980  -4.6658  -4.6641
    -4.6614  -4.6565  -4.6147   5.4884   9.8303  10.8166  12.4353  13.0285
    13.3889  13.7652  14.0916  14.3510  14.3684  14.6938  14.7191  15.0755
    15.1720  16.2207  16.2666  16.2921  16.3231  16.3906  17.1550  17.4833
    18.0728  18.1761  19.6295  20.1315  21.2493  21.6903  21.9789  22.2187
    23.1018  24.5076  25.4818  25.7789  26.0030  26.4650  26.7122  27.0588
    27.1661  28.5145  31.9892  32.8526  33.0587  33.3378  33.6116  33.8687
    34.4458  34.4810  35.3297  35.8481  36.1981  36.7909  37.7842  38.1773

          k = 0.0833 0.0481 0.0000 ( 10018 PWs)   bands (ev):

   -77.7222 -77.7099 -77.7096 -41.0703 -41.0257 -41.0126 -41.0123 -40.9972
   -40.9961 -40.9344 -40.9332 -40.9229  -4.9281  -4.8350  -4.8326  -4.8165
    -4.8158  -4.7710  -4.7456  -4.7441  -4.7055  -4.7042  -4.6675  -4.6667
    -4.6586  -4.6564  -4.6142   5.4239   9.8809  11.1319  12.5601  12.8912
    13.3731  13.7355  14.0889  14.2409  14.2507  14.6931  14.7029  15.1080
    15.1514  16.2446  16.2692  16.2934  16.2942  16.3386  17.1494  17.3738
    18.0319  18.0691  19.5543  20.1680  21.4993  21.7077  22.3228  22.3896
    23.1479  24.1107  25.3663  25.5610  25.8101  26.3137  26.4238  27.3307
    27.5378  28.5769  32.0481  32.6166  32.7495  33.6056  34.0421  34.1113
    34.7544  34.9139  35.3197  36.1878  36.6629  36.8122  37.4428  38.0369

          k = 0.0417 0.0241 0.0000 ( 10023 PWs)   bands (ev):

   -77.7224 -77.7097 -77.7096 -41.0715 -41.0258 -41.0125 -41.0123 -40.9972
   -40.9969 -40.9331 -40.9328 -40.9224  -4.9285  -4.8307  -4.8300  -4.8155
    -4.8153  -4.7685  -4.7467  -4.7463  -4.7093  -4.7089  -4.6684  -4.6682
    -4.6569  -4.6563  -4.6138   5.3852   9.9062  11.3883  12.6506  12.7509
    13.3635  13.7340  14.0870  14.1556  14.1593  14.6927  14.6949  15.1281
    15.1389  16.2579  16.2674  16.2732  16.2967  16.3081  17.1482  17.2945
    18.0099  18.0178  19.5127  20.1867  21.6638  21.7171  22.4148  22.8174
    23.1785  23.6969  25.2953  25.3578  25.6497  26.2198  26.2472  27.6316
    27.7133  28.7555  32.0315  32.1752  32.3433  34.2511  34.3167  34.3900
    34.9967  35.2576  35.3584  36.3882  36.8636  36.9638  37.2110  37.7258

          k = 0.0000 0.0000 0.0000 ( 10021 PWs)   bands (ev):

   -77.7224 -77.7097 -77.7096 -41.0719 -41.0259 -41.0124 -41.0123 -40.9972
   -40.9972 -40.9327 -40.9327 -40.9223  -4.9287  -4.8291  -4.8291  -4.8152
    -4.8151  -4.7674  -4.7470  -4.7470  -4.7107  -4.7107  -4.6687  -4.6687
    -4.6563  -4.6563  -4.6137   5.3723   9.9140  11.4947  12.6842  12.6843
    13.3603  13.7386  14.0863  14.1230  14.1231  14.6925  14.6925  15.1348
    15.1348  16.2619  16.2660  16.2661  16.2980  16.2981  17.1482  17.2661
    18.0029  18.0030  19.4993  20.1924  21.7201  21.7202  22.4546  23.1892
    23.1893  23.3304  25.2714  25.2715  25.5979  26.1879  26.1880  27.7547
    27.7547  28.8592  31.9958  31.9959  32.2180  34.4065  34.5019  34.5019
    35.1454  35.3887  35.3887  36.4742  36.8394  36.8394  37.3937  37.6483

          k = 0.0000 0.0000 0.0516 ( 10021 PWs)   bands (ev):

   -77.7224 -77.7097 -77.7096 -41.0719 -41.0259 -41.0124 -41.0123 -40.9972
   -40.9972 -40.9327 -40.9327 -40.9223  -4.9284  -4.8291  -4.8291  -4.8154
    -4.8153  -4.7670  -4.7479  -4.7479  -4.7105  -4.7105  -4.6682  -4.6682
    -4.6563  -4.6563  -4.6136   5.3870   9.9017  11.4839  12.7005  12.7006
    13.3837  13.5921  14.1267  14.1268  14.1877  14.6925  14.6925  15.1365
    15.1366  16.2611  16.2661  16.2662  16.2966  16.2967  17.1482  17.2706
    17.9804  17.9805  19.5773  20.1292  21.6717  21.6718  22.1267  23.0494
    23.0495  23.6822  25.4541  25.4542  25.7053  26.2343  26.2344  27.8101
    27.8101  28.8774  31.9949  31.9950  32.2189  34.3867  34.4462  34.4462
    35.1496  35.3600  35.3600  36.3473  36.8531  36.8531  37.3277  37.4517

          k = 0.0000 0.0000 0.1033 ( 10003 PWs)   bands (ev):

   -77.7224 -77.7097 -77.7096 -41.0719 -41.0259 -41.0124 -41.0123 -40.9972
   -40.9972 -40.9327 -40.9327 -40.9223  -4.9275  -4.8289  -4.8289  -4.8159
    -4.8159  -4.7659  -4.7502  -4.7502  -4.7098  -4.7098  -4.6668  -4.6668
    -4.6563  -4.6563  -4.6133   5.4311   9.8627  11.4532  12.7490  12.7491
    13.3240  13.4521  14.1376  14.1377  14.3317  14.6924  14.6924  15.1420
    15.1421  16.2588  16.2664  16.2665  16.2925  16.2926  17.1483  17.2784
    17.9124  17.9125  19.7816  19.9819  21.5353  21.5354  21.5839  22.7305
    22.7306  24.2966  25.9017  25.9018  26.0109  26.3639  26.3640  27.9763
    27.9764  28.9320  31.9925  31.9925  32.2210  34.2761  34.2761  34.3288
    35.1618  35.2796  35.2796  36.0204  36.8912  36.8912  37.0475  37.1629

          k = 0.0000 0.0000 0.1549 (  9991 PWs)   bands (ev):

   -77.7224 -77.7097 -77.7096 -41.0719 -41.0260 -41.0124 -41.0123 -40.9972
   -40.9972 -40.9327 -40.9327 -40.9223  -4.9262  -4.8286  -4.8286  -4.8169
    -4.8169  -4.7641  -4.7538  -4.7538  -4.7087  -4.7087  -4.6647  -4.6647
    -4.6564  -4.6564  -4.6128   5.5045   9.7915  11.4076  12.8293  12.8294
    13.0347  13.5600  14.1546  14.1546  14.4462  14.6922  14.6922  15.1515
    15.1516  16.2552  16.2667  16.2668  16.2861  16.2862  17.1483  17.2775
    17.7980  17.7981  19.6645  20.2242  21.0292  21.3331  21.3332  22.3639
    22.3640  24.9698  26.4772  26.4829  26.4830  26.5557  26.5558  28.2526
    28.2526  29.0225  31.9889  31.9890  32.2224  33.9916  33.9917  34.2362
    35.1607  35.1608  35.1816  35.5840  36.4278  36.9469  36.9469  36.9618

          k = 0.0000 0.0000 0.2066 (  9960 PWs)   bands (ev):

   -77.7224 -77.7097 -77.7096 -41.0718 -41.0260 -41.0124 -41.0123 -40.9972
   -40.9972 -40.9327 -40.9327 -40.9223  -4.9245  -4.8282  -4.8281  -4.8181
    -4.8181  -4.7617  -4.7583  -4.7582  -4.7071  -4.7071  -4.6622  -4.6622
    -4.6565  -4.6565  -4.6121   5.6066   9.6802  11.3530  12.7607  12.9404
    12.9405  13.7006  14.1762  14.1762  14.5299  14.6917  14.6918  15.1656
    15.1657  16.2504  16.2669  16.2670  16.2779  16.2780  17.1483  17.2572
    17.6370  17.6371  19.3829  20.4921  20.7211  21.0906  21.0907  22.0134
    22.0135  25.6708  26.7897  26.7897  27.0644  27.1325  27.1326  28.6326
    28.6327  29.1484  31.9854  31.9854  32.2187  33.6094  33.6094  34.1098
    35.0182  35.0182  35.0986  35.2081  35.6091  36.8715  36.8715  37.0141

          k = 0.0000 0.0000 0.2582 (  9954 PWs)   bands (ev):

   -77.7224 -77.7097 -77.7096 -41.0718 -41.0261 -41.0124 -41.0123 -40.9972
   -40.9972 -40.9327 -40.9327 -40.9223  -4.9225  -4.8277  -4.8276  -4.8195
    -4.8195  -4.7632  -4.7632  -4.7589  -4.7053  -4.7053  -4.6596  -4.6596
    -4.6567  -4.6567  -4.6114   5.7371   9.5216  11.2948  12.5256  13.0811
    13.0812  13.8669  14.2004  14.2005  14.5905  14.6910  14.6910  15.1846
    15.1847  16.2449  16.2667  16.2668  16.2685  16.2686  17.1484  17.2108
    17.4316  17.4317  19.0991  19.9815  20.8305  20.8307  21.3232  21.7049
    21.7050  26.3888  27.0547  27.0547  27.7404  27.8196  27.8197  29.1046
    29.1047  29.3090  31.9836  31.9837  32.1973  33.1582  33.1583  33.9293
    34.5959  34.7621  34.8636  34.8637  35.2402  36.8768  36.8768  37.0885

          k = 0.0000 0.0000 0.3099 (  9972 PWs)   bands (ev):

   -77.7224 -77.7097 -77.7096 -41.0717 -41.0262 -41.0124 -41.0123 -40.9973
   -40.9972 -40.9327 -40.9327 -40.9223  -4.9203  -4.8271  -4.8271  -4.8210
    -4.8210  -4.7682  -4.7682  -4.7560  -4.7032  -4.7032  -4.6570  -4.6570
    -4.6570  -4.6570  -4.6106   5.8948   9.3134  11.2376  12.3430  13.2493
    13.2494  14.0518  14.2253  14.2254  14.6352  14.6896  14.6896  15.2086
    15.2087  16.2390  16.2586  16.2587  16.2654  16.2655  17.1345  17.1485
    17.1877  17.1878  18.8445  19.5026  20.5712  20.5713  21.4478  21.4479
    22.0049  27.1149  27.3469  27.3469  28.4799  28.5241  28.5243  29.5031
    29.6533  29.6533  31.9870  31.9871  32.1169  32.6666  32.6666  33.5473
    34.0925  34.1376  34.7045  34.7045  35.2761  36.9550  36.9550  37.0987

          k = 0.0000 0.0000 0.3615 (  9936 PWs)   bands (ev):

   -77.7224 -77.7097 -77.7096 -41.0717 -41.0263 -41.0124 -41.0123 -40.9973
   -40.9972 -40.9327 -40.9327 -40.9223  -4.9182  -4.8266  -4.8266  -4.8225
    -4.8225  -4.7730  -4.7729  -4.7530  -4.7010  -4.7010  -4.6574  -4.6574
    -4.6547  -4.6547  -4.6098   6.0787   9.0604  11.1849  12.2148  13.4420
    13.4421  14.2477  14.2489  14.2489  14.6697  14.6871  14.6871  15.2367
    15.2368  16.2331  16.2490  16.2490  16.2611  16.2612  16.9165  16.9166
    17.0300  17.1485  18.6366  19.0609  20.3270  20.3272  21.2430  21.2431
    22.7481  27.6660  27.6660  27.8381  29.2266  29.2267  29.2589  29.7294
    30.2635  30.2636  31.8347  32.0017  32.0018  32.1555  32.1555  33.0001
    33.5978  33.8802  34.5433  34.5433  35.3144  36.9443  37.0847  37.0847

          k = 0.0000 0.0000 0.4132 (  9966 PWs)   bands (ev):

   -77.7224 -77.7097 -77.7096 -41.0717 -41.0264 -41.0124 -41.0123 -40.9973
   -40.9973 -40.9327 -40.9327 -40.9223  -4.9162  -4.8260  -4.8260  -4.8239
    -4.8239  -4.7773  -4.7773  -4.7502  -4.6989  -4.6989  -4.6580  -4.6579
    -4.6527  -4.6527  -4.6091   6.2863   8.7747  11.1390  12.1338  13.6547
    13.6548  14.2694  14.2695  14.4457  14.6826  14.6826  14.6975  15.2671
    15.2672  16.2277  16.2401  16.2402  16.2470  16.2471  16.6380  16.6381
    16.9064  17.1486  18.4811  18.6638  20.1098  20.1099  21.0866  21.0866
    23.5377  28.0123  28.0123  28.5417  29.9000  29.9001  29.9862  30.0224
    30.9204  30.9205  31.2233  31.6397  31.6397  32.0402  32.0402  32.7378
    33.1180  33.7272  34.3776  34.3776  35.3533  36.7717  37.2321  37.2321

          k = 0.0000 0.0000 0.4648 (  9996 PWs)   bands (ev):

   -77.7224 -77.7097 -77.7096 -41.0716 -41.0264 -41.0124 -41.0123 -40.9973
   -40.9973 -40.9327 -40.9327 -40.9223  -4.9144  -4.8256  -4.8256  -4.8251
    -4.8251  -4.7809  -4.7809  -4.7478  -4.6969  -4.6969  -4.6585  -4.6585
    -4.6511  -4.6511  -4.6084   6.5137   8.4719  11.1018  12.0883  13.8798
    13.8799  14.2859  14.2859  14.6337  14.6741  14.6741  14.7202  15.2967
    15.2968  16.1834  16.1835  16.2230  16.2327  16.2328  16.4096  16.4097
    16.7807  17.1486  18.3221  18.3736  19.9293  19.9294  20.9728  20.9728
    24.3586  28.3855  28.3855  29.1982  30.1082  30.2708  30.4979  30.4980
    31.1019  31.1238  31.1238  31.6127  31.6128  32.1286  32.1286  32.6583
    32.6711  33.6078  34.1997  34.1997  35.3924  36.5421  36.9869  36.9870

          k = 0.0000 0.0000 0.5164 (  9966 PWs)   bands (ev):

   -77.7224 -77.7097 -77.7096 -41.0716 -41.0265 -41.0124 -41.0122 -40.9973
   -40.9973 -40.9327 -40.9327 -40.9223  -4.9131  -4.8260  -4.8260  -4.8252
    -4.8252  -4.7836  -4.7836  -4.7460  -4.6954  -4.6954  -4.6590  -4.6590
    -4.6499  -4.6499  -4.6079   6.7520   8.1719  11.0745  12.0659  14.1037
    14.1037  14.2977  14.2978  14.6574  14.6575  14.7380  14.7944  15.3218
    15.3219  15.9974  15.9976  16.2194  16.2271  16.2271  16.3293  16.3294
    16.6726  17.1487  18.0522  18.3054  19.7936  19.7938  20.8960  20.8960
    25.1881  28.7847  28.7847  29.2972  29.7614  30.5777  30.6234  30.6234
    30.9463  30.9463  31.8162  32.2255  32.3057  32.3058  32.3076  32.3076
    32.6673  33.5143  34.0005  34.0006  35.4336  36.1804  36.1999  36.2001

          k = 0.0000 0.0000 0.5681 (  9960 PWs)   bands (ev):

   -77.7224 -77.7097 -77.7096 -41.0716 -41.0265 -41.0124 -41.0122 -40.9973
   -40.9973 -40.9327 -40.9327 -40.9222  -4.9123  -4.8266  -4.8266  -4.8250
    -4.8250  -4.7853  -4.7853  -4.7449  -4.6943  -4.6943  -4.6594  -4.6594
    -4.6492  -4.6492  -4.6076   6.9748   7.9090  11.0578  12.0567  14.2986
    14.2986  14.3049  14.3050  14.6254  14.6255  14.7497  14.9059  15.3388
    15.3389  15.8131  15.8132  16.2171  16.2235  16.2236  16.3131  16.3132
    16.5998  17.1487  17.8754  18.2680  19.7094  19.7095  20.8518  20.8518
    25.9616  28.4904  29.2067  29.2067  30.1389  30.1389  30.1591  30.8881
    31.1907  31.1907  31.8393  32.4453  32.5655  32.5656  32.7147  32.9335
    32.9336  33.4460  33.7911  33.7911  35.4832  35.4954  35.4955  35.7128

          k = 0.0000 0.0000 0.6197 (  9948 PWs)   bands (ev):

   -77.7224 -77.7097 -77.7096 -41.0716 -41.0265 -41.0124 -41.0122 -40.9973
   -40.9973 -40.9327 -40.9327 -40.9222  -4.9120  -4.8268  -4.8268  -4.8249
    -4.8249  -4.7859  -4.7858  -4.7445  -4.6940  -4.6940  -4.6595  -4.6595
    -4.6490  -4.6490  -4.6075   7.0873   7.7825  11.0522  12.0544  14.3072
    14.3073  14.3944  14.3945  14.5946  14.5947  14.7538  14.9463  15.3448
    15.3449  15.7383  15.7385  16.2164  16.2224  16.2224  16.3098  16.3099
    16.5741  17.1487  17.8133  18.2561  19.6808  19.6810  20.8373  20.8374
    26.3773  28.0608  29.5825  29.5826  29.7420  29.7420  30.3058  31.0780
    31.2614  31.2614  31.6240  32.6012  32.7148  32.7149  32.8745  33.2438
    33.2439  33.4110  33.6761  33.6762  35.1586  35.1587  35.4636  35.5220

     Writing output data file ./out/cosn.save/

     init_run     :      0.06s CPU      0.07s WALL (       1 calls)
     electrons    :     95.33s CPU    101.95s WALL (       1 calls)

     Called by init_run:
     wfcinit      :      0.00s CPU      0.00s WALL (       1 calls)
     potinit      :      0.02s CPU      0.02s WALL (       1 calls)
     hinit0       :      0.02s CPU      0.02s WALL (       1 calls)

     Called by electrons:
     c_bands      :     95.32s CPU    101.92s WALL (       1 calls)
     v_of_rho     :      0.01s CPU      0.01s WALL (       1 calls)

     Called by c_bands:
     init_us_2    :      0.01s CPU      0.01s WALL (      98 calls)
     cegterg      :     92.13s CPU     98.42s WALL (     115 calls)

     Called by *egterg:
     cdiaghg      :     36.03s CPU     38.04s WALL (    1948 calls)
     h_psi        :     23.11s CPU     25.37s WALL (    2063 calls)
     g_psi        :      0.18s CPU      0.18s WALL (    1850 calls)

     Called by h_psi:
     h_psi:calbec :      4.39s CPU      4.89s WALL (    2063 calls)
     vloc_psi     :     14.60s CPU     16.17s WALL (    2063 calls)
     add_vuspsi   :      4.06s CPU      4.26s WALL (    2063 calls)

     General routines
     calbec       :      4.39s CPU      4.88s WALL (    2063 calls)
     fft          :      0.01s CPU      0.01s WALL (      18 calls)
     fftw         :     13.28s CPU     14.78s WALL (  208216 calls)
     davcio       :      0.04s CPU      0.05s WALL (     196 calls)

     Parallel routines
     fft_scatt_xy :      1.52s CPU      1.68s WALL (  208234 calls)
     fft_scatt_yz :      7.87s CPU      8.87s WALL (  208234 calls)

     PWSCF        :   1m37.21s CPU   1m45.70s WALL


   This run was terminated on:  16:12:40  15Jun2026            

=------------------------------------------------------------------------------=
   JOB DONE.
=------------------------------------------------------------------------------=
