
     Program PWSCF v.6.7MaX starts on 15Jun2026 at 16:21:39 

     This program is part of the open-source Quantum ESPRESSO suite
     for quantum simulation of materials; please cite
         "P. Giannozzi et al., J. Phys.:Condens. Matter 21 395502 (2009);
         "P. Giannozzi et al., J. Phys.:Condens. Matter 29 465901 (2017);
          URL http://www.quantum-espresso.org", 
     in publications or presentations arising from this work. More details at
     http://www.quantum-espresso.org/quote

     Parallel version (MPI), running on    32 processors

     MPI processes distributed on     1 nodes
     R & G space division:  proc/nbgrp/npool/nimage =      32
     Reading input from bands.in

     Current dimensions of program PWSCF are:
     Max number of different atomic species (ntypx) = 10
     Max number of k-points (npk) =  40000
     Max angular momentum in pseudopotentials (lmaxx) =  3

     Atomic positions and unit cell read from directory:
     ./out/cosn.save/
     Atomic positions from file used, from input discarded

     Message from routine read_pp_mesh:
     mesh size missing, using the one in header
     Message from routine read_pp_mesh:
     mesh size missing, using the one in header

     Subspace diagonalization in iterative solution of the eigenvalue problem:
     one sub-group per band group will be used
     scalapack distributed-memory algorithm (size of sub-group:  5*  5 procs)


     Parallelization info
     --------------------
     sticks:   dense  smooth     PW     G-vecs:    dense   smooth      PW
     Min          77      77     21                 2501     2501     355
     Max          78      78     22                 2504     2504     359
     Sum        2479    2479    673                80083    80083   11401



     bravais-lattice index     =            4
     lattice parameter (alat)  =       9.9760  a.u.
     unit-cell volume          =     693.6907 (a.u.)^3
     number of atoms/cell      =            6
     number of atomic types    =            2
     number of electrons       =        93.20
     number of Kohn-Sham states=           80
     kinetic-energy cutoff     =      90.0000  Ry
     charge density cutoff     =     360.0000  Ry
     Exchange-correlation= PBE
                           (   1   4   3   4   0   0   0)

     celldm(1)=   9.976000  celldm(2)=   0.000000  celldm(3)=   0.806800
     celldm(4)=   0.000000  celldm(5)=   0.000000  celldm(6)=   0.000000

     crystal axes: (cart. coord. in units of alat)
               a(1) = (   1.000000   0.000000   0.000000 )  
               a(2) = (  -0.500000   0.866025   0.000000 )  
               a(3) = (   0.000000   0.000000   0.806800 )  

     reciprocal axes: (cart. coord. in units 2 pi/alat)
               b(1) = (  1.000000  0.577350 -0.000000 )  
               b(2) = (  0.000000  1.154701  0.000000 )  
               b(3) = (  0.000000 -0.000000  1.239465 )  


     PseudoPot. # 1 for Co read from file:
     ./pseudo/Co_ONCV_PBE_sr.upf
     MD5 check sum: 04640e31e65e5bce9f0417487be359f7
     Pseudo is Norm-conserving, Zval = 17.0
     Generated using ONCVPSP code by D. R. Hamann
     Using radial grid of  602 points,  6 beta functions with: 
                l(1) =   0
                l(2) =   0
                l(3) =   1
                l(4) =   1
                l(5) =   2
                l(6) =   2

     PseudoPot. # 2 for Sn read from file:
     ./pseudo/Sn_ONCV_PBE_sr.upf
     MD5 check sum: 6680f7ee4d83b53e0fcd4167fcb72813
     Pseudo is Norm-conserving, Zval = 14.0
     Generated using ONCVPSP code by D. R. Hamann
     Using radial grid of  602 points,  6 beta functions with: 
                l(1) =   0
                l(2) =   0
                l(3) =   1
                l(4) =   1
                l(5) =   2
                l(6) =   2

     atomic species   valence    mass     pseudopotential
        Co            17.00    58.93300     Co( 1.00)
        Sn            14.00   118.71000     Sn( 1.00)

     Starting magnetic structure 
     atomic species   magnetization
        Co           0.300
        Sn           0.000

     24 Sym. Ops., with inversion, found



   Cartesian axes

     site n.     atom                  positions (alat units)
         1           Co  tau(   1) = (   0.5000000   0.0000000   0.0000000  )
         2           Co  tau(   2) = (  -0.2500000   0.4330127   0.0000000  )
         3           Co  tau(   3) = (   0.2500000   0.4330127   0.0000000  )
         4           Sn  tau(   4) = (   0.0000000   0.0000000   0.0000000  )
         5           Sn  tau(   5) = (  -0.0000005   0.5773506   0.4034000  )
         6           Sn  tau(   6) = (   0.5000005   0.2886748   0.4034000  )

     number of k points=    49  Methfessel-Paxton smearing, width (Ry)=  0.0200
                       cart. coord. in units 2pi/alat
        k(    1) = (   0.0000000   0.0000000   0.0000000), wk =   0.0204082
        k(    2) = (   0.0277750   0.0481077   0.0000000), wk =   0.0204082
        k(    3) = (   0.0555500   0.0962154   0.0000000), wk =   0.0204082
        k(    4) = (   0.0833250   0.1443231   0.0000000), wk =   0.0204082
        k(    5) = (   0.1111000   0.1924308   0.0000000), wk =   0.0204082
        k(    6) = (   0.1388750   0.2405386   0.0000000), wk =   0.0204082
        k(    7) = (   0.1666500   0.2886463   0.0000000), wk =   0.0204082
        k(    8) = (   0.1944250   0.3367540   0.0000000), wk =   0.0204082
        k(    9) = (   0.2222000   0.3848617   0.0000000), wk =   0.0204082
        k(   10) = (   0.2499750   0.4329694   0.0000000), wk =   0.0204082
        k(   11) = (   0.2777500   0.4810771   0.0000000), wk =   0.0204082
        k(   12) = (   0.3055250   0.5291848   0.0000000), wk =   0.0204082
        k(   13) = (   0.3333000   0.5772925   0.0000000), wk =   0.0204082
        k(   14) = (   0.3471917   0.5532411   0.0000000), wk =   0.0204082
        k(   15) = (   0.3610833   0.5291896   0.0000000), wk =   0.0204082
        k(   16) = (   0.3749750   0.5051382   0.0000000), wk =   0.0204082
        k(   17) = (   0.3888667   0.4810867   0.0000000), wk =   0.0204082
        k(   18) = (   0.4027583   0.4570353   0.0000000), wk =   0.0204082
        k(   19) = (   0.4166500   0.4329838   0.0000000), wk =   0.0204082
        k(   20) = (   0.4305417   0.4089324   0.0000000), wk =   0.0204082
        k(   21) = (   0.4444333   0.3848809   0.0000000), wk =   0.0204082
        k(   22) = (   0.4583250   0.3608295   0.0000000), wk =   0.0204082
        k(   23) = (   0.4722167   0.3367780   0.0000000), wk =   0.0204082
        k(   24) = (   0.4861083   0.3127266   0.0000000), wk =   0.0204082
        k(   25) = (   0.5000000   0.2886751   0.0000000), wk =   0.0204082
        k(   26) = (   0.4583333   0.2646189   0.0000000), wk =   0.0204082
        k(   27) = (   0.4166667   0.2405626   0.0000000), wk =   0.0204082
        k(   28) = (   0.3750000   0.2165064   0.0000000), wk =   0.0204082
        k(   29) = (   0.3333333   0.1924501   0.0000000), wk =   0.0204082
        k(   30) = (   0.2916667   0.1683938   0.0000000), wk =   0.0204082
        k(   31) = (   0.2500000   0.1443376   0.0000000), wk =   0.0204082
        k(   32) = (   0.2083333   0.1202813   0.0000000), wk =   0.0204082
        k(   33) = (   0.1666667   0.0962250   0.0000000), wk =   0.0204082
        k(   34) = (   0.1250000   0.0721688   0.0000000), wk =   0.0204082
        k(   35) = (   0.0833333   0.0481125   0.0000000), wk =   0.0204082
        k(   36) = (   0.0416667   0.0240563   0.0000000), wk =   0.0204082
        k(   37) = (   0.0000000   0.0000000   0.0000000), wk =   0.0204082
        k(   38) = (   0.0000000   0.0000000   0.0516444), wk =   0.0204082
        k(   39) = (   0.0000000   0.0000000   0.1032887), wk =   0.0204082
        k(   40) = (   0.0000000   0.0000000   0.1549331), wk =   0.0204082
        k(   41) = (   0.0000000   0.0000000   0.2065774), wk =   0.0204082
        k(   42) = (   0.0000000   0.0000000   0.2582218), wk =   0.0204082
        k(   43) = (   0.0000000   0.0000000   0.3098661), wk =   0.0204082
        k(   44) = (   0.0000000   0.0000000   0.3615105), wk =   0.0204082
        k(   45) = (   0.0000000   0.0000000   0.4131549), wk =   0.0204082
        k(   46) = (   0.0000000   0.0000000   0.4647992), wk =   0.0204082
        k(   47) = (   0.0000000   0.0000000   0.5164436), wk =   0.0204082
        k(   48) = (   0.0000000   0.0000000   0.5680879), wk =   0.0204082
        k(   49) = (   0.0000000   0.0000000   0.6197323), wk =   0.0204082

     Dense  grid:    80083 G-vectors     FFT dimensions: (  64,  64,  50)

     Estimated max dynamical RAM per process >       8.64 MB

     Estimated total dynamical RAM >     276.46 MB
     Generating pointlists ...
     new r_m :   0.2046 (alat units)  2.0413 (a.u.) for type    1
     new r_m :   0.2046 (alat units)  2.0413 (a.u.) for type    2

     The potential is recalculated from file :
     ./out/cosn.save/charge-density

     Starting wfcs are random

     Band Structure Calculation
     Davidson diagonalization with overlap

     ethr =  1.07E-09,  avg # of iterations = 18.9

     total cpu time spent up to now is      102.9 secs

     End of band structure calculation

 ------ SPIN UP ------------


          k = 0.0000 0.0000 0.0000 ( 10021 PWs)   bands (ev):

   -77.6718 -77.6591 -77.6590 -41.0308 -40.9795 -40.9660 -40.9658 -40.9551
   -40.9551 -40.8906 -40.8906 -40.8793  -4.9396  -4.8505  -4.8504  -4.8278
    -4.8278  -4.7885  -4.7680  -4.7680  -4.7322  -4.7322  -4.6837  -4.6837
    -4.6766  -4.6766  -4.6348   5.3461   9.8965  11.4729  12.6710  12.6711
    13.3725  13.7437  14.0615  14.0952  14.0952  14.7182  14.7183  15.1554
    15.1555  16.2803  16.2804  16.2910  16.3307  16.3308  17.1910  17.2778
    18.0219  18.0220  19.4748  20.1616  21.6873  21.6874  22.4410  23.1685
    23.1686  23.3329  25.2632  25.2633  25.5513  26.1646  26.1647  27.7213
    27.7213  28.8306  31.9645  31.9646  32.1901  34.3810  34.4821  34.4821
    35.1210  35.3613  35.3613  36.4478  36.8106  36.8106  37.3585  37.6126

          k = 0.0278 0.0481 0.0000 ( 10021 PWs)   bands (ev):

   -77.6718 -77.6591 -77.6590 -41.0303 -40.9794 -40.9660 -40.9658 -40.9551
   -40.9548 -40.8911 -40.8907 -40.8795  -4.9394  -4.8525  -4.8516  -4.8283
    -4.8281  -4.7899  -4.7674  -4.7669  -4.7302  -4.7297  -4.6833  -4.6831
    -4.6774  -4.6766  -4.6350   5.3633   9.8859  11.3341  12.6259  12.7560
    13.3767  13.7370  14.0629  14.1414  14.1448  14.7183  14.7215  15.1463
    15.1610  16.2819  16.2856  16.2892  16.3289  16.3438  17.1908  17.3152
    18.0314  18.0409  19.4922  20.1542  21.6144  21.6816  22.3898  22.7400
    23.1553  23.7534  25.2897  25.3812  25.6205  26.2080  26.2426  27.5516
    27.6738  28.6958  32.0407  32.1457  32.3805  34.1781  34.2603  34.2944
    34.9510  35.1993  35.3135  36.3352  36.7896  37.0035  37.1358  37.7300

          k = 0.0555 0.0962 0.0000 ( 10003 PWs)   bands (ev):

   -77.6716 -77.6593 -77.6590 -41.0286 -40.9792 -40.9662 -40.9658 -40.9552
   -40.9537 -40.8928 -40.8911 -40.8802  -4.9387  -4.8586  -4.8546  -4.8297
    -4.8289  -4.7931  -4.7658  -4.7638  -4.7250  -4.7237  -4.6822  -4.6813
    -4.6798  -4.6768  -4.6354   5.4149   9.8512  11.0124  12.5140  12.9204
    13.3894  13.7389  14.0668  14.2521  14.2702  14.7185  14.7323  15.1192
    15.1777  16.2689  16.2850  16.3118  16.3230  16.3845  17.1918  17.4169
    18.0674  18.1042  19.5475  20.1300  21.4169  21.6389  22.2446  22.2946
    23.1273  24.2171  25.3369  25.6981  25.8026  26.3458  26.4653  27.1134
    27.5460  28.4405  32.2484  32.3714  33.0297  33.5289  33.6874  33.8761
    34.8352  34.8704  35.1825  35.9924  36.4753  37.0798  37.1366  38.1566

          k = 0.0833 0.1443 0.0000 (  9989 PWs)   bands (ev):

   -77.6713 -77.6597 -77.6590 -41.0260 -40.9789 -40.9666 -40.9658 -40.9554
   -40.9518 -40.8955 -40.8918 -40.8812  -4.9378  -4.8678  -4.8586  -4.8315
    -4.8300  -4.7966  -4.7637  -4.7592  -4.7177  -4.7164  -4.6835  -4.6802
    -4.6782  -4.6769  -4.6361   5.5008   9.7854  10.6203  12.3855  13.0703
    13.4102  13.7664  14.0720  14.3603  14.4480  14.7190  14.7556  15.0756
    15.2052  16.2414  16.2846  16.3133  16.3404  16.4546  17.1984  17.5441
    18.1561  18.2301  19.6501  20.0835  21.1387  21.5056  21.7603  22.2692
    23.1120  24.6273  25.3857  25.8043  26.1350  26.5969  26.7935  26.8074
    27.3803  28.1984  32.2765  32.4559  33.0032  33.0781  33.2569  33.8659
    34.5484  34.8074  34.9950  35.4284  36.2563  36.9889  37.2034  38.1102

          k = 0.1111 0.1924 0.0000 ( 10007 PWs)   bands (ev):

   -77.6708 -77.6601 -77.6590 -41.0224 -40.9784 -40.9670 -40.9658 -40.9557
   -40.9493 -40.8992 -40.8927 -40.8825  -4.9366  -4.8791  -4.8625  -4.8333
    -4.8310  -4.7999  -4.7615  -4.7537  -4.7098  -4.7095  -4.6882  -4.6770
    -4.6769  -4.6739  -4.6371   5.6208   9.6803  10.2086  12.2859  13.1875
    13.4389  13.8176  14.0770  14.4355  14.6248  14.7199  14.8018  15.0185
    15.2429  16.2045  16.2716  16.2999  16.3696  16.5560  17.2144  17.6392
    18.3255  18.4448  19.8171  20.0093  20.8180  21.2926  21.2936  22.3461
    23.1357  24.9635  25.2494  25.4406  26.5585  26.9751  27.0013  27.2422
    27.2879  28.0277  31.4958  31.9201  32.5138  33.0852  33.4049  33.9630
    34.2455  34.7772  34.8065  35.5412  36.0752  36.8901  37.2750  38.0108

          k = 0.1389 0.2405 0.0000 ( 10015 PWs)   bands (ev):

   -77.6703 -77.6606 -77.6590 -41.0180 -40.9778 -40.9676 -40.9658 -40.9562
   -40.9461 -40.9037 -40.8939 -40.8840  -4.9353  -4.8910  -4.8656  -4.8348
    -4.8316  -4.8030  -4.7601  -4.7479  -4.7038  -4.7029  -4.6935  -4.6771
    -4.6718  -4.6688  -4.6381   5.7743   9.5326   9.7995  12.2438  13.2803
    13.4748  13.8854  14.0795  14.4644  14.7208  14.7618  14.8783  14.9523
    15.2903  16.1595  16.2379  16.2828  16.3975  16.6901  17.2400  17.6832
    18.5528  18.7674  19.9062  20.0691  20.4786  20.8482  21.0591  22.4896
    23.2145  24.5241  25.2312  25.5028  26.6491  27.2087  27.4714  27.5740
    27.7462  28.0992  30.6227  31.1180  31.7281  33.2070  33.4324  33.9483
    33.9529  34.5476  34.8596  35.8812  36.4866  36.8376  37.3508  37.7462

          k = 0.1666 0.2886 0.0000 ( 10007 PWs)   bands (ev):

   -77.6697 -77.6612 -77.6590 -41.0131 -40.9772 -40.9682 -40.9659 -40.9571
   -40.9423 -40.9086 -40.8953 -40.8857  -4.9343  -4.9027  -4.8674  -4.8356
    -4.8317  -4.8062  -4.7600  -4.7420  -4.6994  -4.6986  -4.6978  -4.6770
    -4.6653  -4.6635  -4.6392   5.9610   9.3472   9.4046  12.2699  13.3571
    13.5173  13.9615  14.0766  14.4549  14.7216  14.8438  14.8829  14.9792
    15.3464  16.1080  16.1822  16.2623  16.4241  16.8578  17.2749  17.6951
    18.7830  19.1912  19.7776  20.1232  20.4210  20.4263  20.8499  22.6697
    23.3526  23.8197  25.4547  25.5690  26.5038  27.1479  28.0591  28.1066
    28.2953  28.4307  29.8722  30.3676  30.9471  32.3573  33.6567  33.6586
    34.3181  34.5363  35.0669  35.6902  36.8366  37.1998  37.2166  37.2441

          k = 0.1944 0.3368 0.0000 ( 10007 PWs)   bands (ev):

   -77.6690 -77.6619 -77.6590 -41.0077 -40.9765 -40.9689 -40.9659 -40.9587
   -40.9380 -40.9135 -40.8968 -40.8876  -4.9338  -4.9130  -4.8674  -4.8358
    -4.8311  -4.8097  -4.7617  -4.7365  -4.7030  -4.6962  -4.6944  -4.6767
    -4.6585  -4.6581  -4.6401   6.1797   9.0307   9.1358  12.3617  13.4223
    13.5655  14.0323  14.0652  14.4240  14.7207  14.8167  14.8756  15.0947
    15.4100  16.0516  16.1098  16.2389  16.4500  17.0590  17.3224  17.6926
    18.9880  19.6310  19.6583  19.7681  20.0293  20.7218  20.8207  22.8648
    23.2204  23.5456  25.6289  25.6582  26.3418  27.0042  28.3084  28.4791
    28.7118  28.8295  29.7731  29.8917  30.2400  31.4917  33.3751  33.6801
    34.0963  35.1638  35.4865  35.5055  36.3776  36.5786  36.8342  37.1591

          k = 0.2222 0.3849 0.0000 (  9987 PWs)   bands (ev):

   -77.6683 -77.6626 -77.6590 -41.0020 -40.9757 -40.9697 -40.9659 -40.9610
   -40.9334 -40.9179 -40.8984 -40.8896  -4.9350  -4.9204  -4.8655  -4.8353
    -4.8300  -4.8139  -4.7654  -4.7315  -4.7064  -4.6938  -4.6922  -4.6762
    -4.6543  -4.6518  -4.6404   6.4292   8.6820   8.9127  12.5103  13.4769
    13.6183  14.0426  14.0697  14.3987  14.7163  14.7599  14.8692  15.2178
    15.4796  15.9921  16.0282  16.2133  16.4753  17.2931  17.3897  17.6857
    19.1641  19.4076  19.4753  19.6586  19.9713  20.8528  21.1517  22.8538
    23.0529  23.7835  25.6637  25.8584  26.2195  26.8679  27.6426  28.2131
    28.9599  29.4100  30.0007  30.1367  30.2766  30.7154  33.1081  33.5682
    33.8864  35.2772  35.5888  35.8465  35.8467  36.0180  36.6826  36.8620

          k = 0.2500 0.4330 0.0000 (  9981 PWs)   bands (ev):

   -77.6675 -77.6634 -77.6590 -40.9962 -40.9749 -40.9705 -40.9659 -40.9644
   -40.9287 -40.9214 -40.8999 -40.8918  -4.9385  -4.9238  -4.8617  -4.8341
    -4.8286  -4.8189  -4.7705  -4.7270  -4.7090  -4.6921  -4.6908  -4.6757
    -4.6510  -4.6480  -4.6392   6.7068   8.3616   8.6918  12.7047  13.5206
    13.6747  14.0075  14.0315  14.4155  14.7052  14.7167  14.8397  15.3430
    15.5532  15.9313  15.9426  16.1867  16.4996  17.4856  17.5582  17.6808
    19.0115  19.3148  19.3190  19.3525  19.9854  21.2051  21.3627  22.9078
    23.2081  24.0520  25.6467  26.0654  26.1624  26.6222  27.1001  27.6210
    28.4078  29.7530  30.1393  30.5134  30.7909  31.1616  32.8600  33.4002
    33.6911  34.8395  35.0849  35.0996  36.0447  36.0855  36.7772  36.8059

          k = 0.2777 0.4811 0.0000 (  9989 PWs)   bands (ev):

   -77.6668 -77.6641 -77.6590 -40.9904 -40.9741 -40.9713 -40.9688 -40.9659
   -40.9245 -40.9238 -40.9008 -40.8942  -4.9427  -4.9248  -4.8560  -4.8324
    -4.8273  -4.8249  -4.7758  -4.7231  -4.7112  -4.6909  -4.6900  -4.6751
    -4.6489  -4.6469  -4.6365   7.0073   8.0713   8.4867  12.9335  13.5521
    13.7332  13.9130  13.9611  14.4707  14.6819  14.6887  14.8049  15.4645
    15.6277  15.8554  15.8710  16.1613  16.5216  17.6174  17.6827  17.8507
    18.6393  18.9987  19.1712  19.5072  19.9004  21.0357  22.0213  23.2748
    23.3025  24.3288  25.5363  26.1041  26.1679  26.2851  27.0324  27.0523
    27.7589  28.9895  30.8834  31.1993  31.5300  31.9390  32.6366  33.2184
    33.5106  34.1418  34.3647  34.8801  35.4308  35.5624  37.3633  37.4697

          k = 0.3055 0.5292 0.0000 (  9969 PWs)   bands (ev):

   -77.6661 -77.6648 -77.6590 -40.9847 -40.9738 -40.9734 -40.9720 -40.9659
   -40.9251 -40.9216 -40.9007 -40.8965  -4.9457  -4.9249  -4.8488  -4.8321
    -4.8304  -4.8269  -4.7799  -4.7196  -4.7135  -4.6902  -4.6897  -4.6746
    -4.6476  -4.6469  -4.6343   7.3171   7.8128   8.3161  13.1816  13.5706
    13.7364  13.7923  13.9071  14.5353  14.6421  14.6743  14.7815  15.5765
    15.6986  15.7666  15.8130  16.1411  16.5387  17.6940  17.7895  18.1609
    18.2881  18.7108  19.0446  19.6448  19.8100  20.8637  22.6835  23.3218
    23.5768  24.5704  25.3069  25.8257  26.1010  26.5211  26.7585  27.0757
    27.1774  28.3439  31.6021  31.8781  32.2189  32.4702  32.6684  33.0615
    33.3328  33.5447  33.6765  34.6377  34.8198  35.0570  37.9186  38.2197

          k = 0.3333 0.5773 0.0000 (  9957 PWs)   bands (ev):

   -77.6655 -77.6654 -77.6590 -40.9793 -40.9792 -40.9728 -40.9726 -40.9659
   -40.9255 -40.9206 -40.8991 -40.8990  -4.9467  -4.9250  -4.8404  -4.8404
    -4.8282  -4.8282  -4.7815  -4.7163  -4.7163  -4.6898  -4.6898  -4.6744
    -4.6471  -4.6471  -4.6335   7.5868   7.5872   8.2320  13.3691  13.5759
    13.5759  13.8502  13.8503  14.5925  14.5925  14.6703  14.7742  15.6754
    15.6757  15.7586  15.7589  16.1325  16.5459  17.7069  18.0011  18.0016
    18.4514  18.4519  18.9781  19.7371  19.7371  20.7956  23.0630  23.4421
    23.4430  24.6826  25.2308  25.8706  25.8709  26.7747  26.7754  26.9247
    26.9255  28.0673  32.0783  32.0787  32.5381  32.5797  33.0320  33.0321
    33.1476  33.2722  33.2723  34.4922  34.4922  34.8365  38.2823  38.8346

          k = 0.3472 0.5532 0.0000 (  9967 PWs)   bands (ev):

   -77.6657 -77.6651 -77.6590 -40.9819 -40.9766 -40.9730 -40.9724 -40.9659
   -40.9254 -40.9208 -40.9003 -40.8976  -4.9465  -4.9250  -4.8450  -4.8359
    -4.8295  -4.8270  -4.7811  -4.7180  -4.7148  -4.6900  -4.6897  -4.6745
    -4.6472  -4.6471  -4.6337   7.4867   7.6649   8.2643  13.2949  13.5740
    13.6433  13.8222  13.8782  14.5677  14.6158  14.6710  14.7759  15.6293
    15.7199  15.7336  15.7819  16.1351  16.5436  17.6953  17.9105  18.1202
    18.3332  18.5482  19.0087  19.7107  19.7589  20.8130  23.0051  23.2248
    23.6397  24.6468  25.2274  25.8094  25.9782  26.6864  26.7615  26.9087
    27.1052  28.1248  31.9732  32.0402  32.4692  32.4826  32.9342  32.9994
    33.1510  33.3434  33.4704  34.4942  34.5830  34.9399  38.0562  38.7194

          k = 0.3611 0.5292 0.0000 (  9985 PWs)   bands (ev):

   -77.6660 -77.6649 -77.6590 -40.9845 -40.9740 -40.9733 -40.9721 -40.9659
   -40.9252 -40.9214 -40.9015 -40.8960  -4.9457  -4.9249  -4.8498  -4.8313
    -4.8312  -4.8259  -4.7800  -4.7199  -4.7132  -4.6902  -4.6897  -4.6746
    -4.6473  -4.6472  -4.6342   7.3949   7.6872   8.3635  13.1539  13.5694
    13.7623  13.7952  13.9050  14.5441  14.6347  14.6731  14.7809  15.5828
    15.7101  15.7613  15.7991  16.1436  16.5362  17.6506  17.8792  18.2226
    18.2455  18.5844  19.1091  19.6930  19.7660  20.8619  22.8826  22.9652
    23.8049  24.5390  25.2085  25.8291  26.0059  26.6844  26.7016  27.0465
    27.3247  28.2684  31.8009  31.8578  32.2888  32.3476  32.7078  32.8952
    33.1043  33.6254  33.8244  34.4444  34.8407  35.2261  37.5785  38.2964

          k = 0.3750 0.5051 0.0000 (  9981 PWs)   bands (ev):

   -77.6663 -77.6646 -77.6590 -40.9870 -40.9736 -40.9718 -40.9715 -40.9659
   -40.9248 -40.9222 -40.9027 -40.8944  -4.9445  -4.9249  -4.8549  -4.8332
    -4.8265  -4.8249  -4.7782  -4.7219  -4.7117  -4.6905  -4.6897  -4.6749
    -4.6473  -4.6473  -4.6351   7.3117   7.6712   8.5115  12.9905  13.5627
    13.7696  13.8876  13.9304  14.5225  14.6493  14.6761  14.7890  15.5363
    15.6883  15.8004  15.8102  16.1579  16.5231  17.5884  17.8923  18.1198
    18.3747  18.5778  19.2613  19.6861  19.7630  20.9343  22.6943  22.7220
    23.9084  24.3706  25.1739  25.8442  25.9374  26.7581  26.8560  27.1879
    27.5773  28.4701  31.5600  31.6234  32.1490  32.1513  32.4215  32.7731
    33.0542  33.9788  34.2250  34.3680  35.1943  35.5913  37.0461  37.8209

          k = 0.3889 0.4811 0.0000 (  9979 PWs)   bands (ev):

   -77.6665 -77.6643 -77.6590 -40.9893 -40.9739 -40.9715 -40.9691 -40.9659
   -40.9244 -40.9233 -40.9039 -40.8927  -4.9428  -4.9247  -4.8601  -4.8353
    -4.8239  -4.8219  -4.7759  -4.7242  -4.7103  -4.6908  -4.6897  -4.6753
    -4.6475  -4.6473  -4.6361   7.2371   7.6382   8.6865  12.8134  13.5544
    13.7458  13.9543  14.0103  14.5030  14.6596  14.6797  14.8001  15.4901
    15.6685  15.8157  15.8379  16.1772  16.5042  17.5314  17.9264  18.0253
    18.5044  18.5533  19.4394  19.6931  19.7557  21.0169  22.4346  22.5328
    23.9567  24.1615  25.1218  25.5988  26.1195  26.8887  27.1191  27.3325
    27.8589  28.7169  31.2756  31.3754  31.9089  32.0513  32.1101  32.6659
    33.0082  34.2776  34.3561  34.6450  35.5962  35.9589  36.5047  37.3813

          k = 0.4028 0.4570 0.0000 (  9995 PWs)   bands (ev):

   -77.6668 -77.6641 -77.6590 -40.9914 -40.9741 -40.9713 -40.9668 -40.9659
   -40.9244 -40.9239 -40.9050 -40.8910  -4.9408  -4.9244  -4.8655  -4.8374
    -4.8229  -4.8174  -4.7732  -4.7267  -4.7088  -4.6911  -4.6898  -4.6757
    -4.6478  -4.6474  -4.6374   7.1712   7.6000   8.8748  12.6267  13.5451
    13.7241  13.9762  14.1267  14.4860  14.6660  14.6835  14.8141  15.4446
    15.6506  15.8168  15.8743  16.2001  16.4799  17.4866  17.9393  17.9717
    18.5236  18.6294  19.6295  19.7184  19.7494  21.0883  22.2115  22.3222
    23.9299  23.9687  25.0293  25.3672  26.3495  27.0590  27.4142  27.4790
    28.1654  29.0023  30.9733  31.1287  31.6418  31.7898  31.9784  32.5760
    32.9672  34.1709  34.7399  35.0752  35.9546  36.0380  36.1930  37.1153

          k = 0.4166 0.4330 0.0000 (  9987 PWs)   bands (ev):

   -77.6670 -77.6639 -77.6590 -40.9933 -40.9743 -40.9711 -40.9659 -40.9646
   -40.9256 -40.9233 -40.9061 -40.8895  -4.9386  -4.9238  -4.8711  -4.8394
    -4.8221  -4.8132  -4.7702  -4.7294  -4.7075  -4.6914  -4.6898  -4.6762
    -4.6480  -4.6474  -4.6388   7.1140   7.5624   9.0689  12.4344  13.5354
    13.7048  13.9960  14.2340  14.4713  14.6688  14.6874  14.8305  15.4004
    15.6349  15.8149  15.9101  16.2248  16.4514  17.4543  17.8625  18.0238
    18.4940  18.7435  19.7484  19.7673  19.8240  21.1123  22.0628  22.0966
    23.6899  23.9615  24.8465  25.2245  26.6026  27.2567  27.6258  27.7160
    28.4913  29.3203  30.6661  30.8907  31.3683  31.4698  31.9209  32.4979
    32.9316  34.0387  35.1197  35.4460  35.5105  36.0655  36.4673  37.2577

          k = 0.4305 0.4089 0.0000 (  9993 PWs)   bands (ev):

   -77.6671 -77.6637 -77.6590 -40.9950 -40.9745 -40.9709 -40.9659 -40.9627
   -40.9268 -40.9227 -40.9071 -40.8882  -4.9364  -4.9227  -4.8766  -4.8413
    -4.8214  -4.8094  -4.7670  -4.7323  -4.7062  -4.6917  -4.6899  -4.6768
    -4.6482  -4.6474  -4.6401   7.0656   7.5283   9.2628  12.2412  13.5261
    13.6881  14.0132  14.3303  14.4591  14.6685  14.6910  14.8488  15.3583
    15.6214  15.8113  15.9454  16.2496  16.4201  17.4325  17.7954  18.0794
    18.4670  18.8404  19.7562  19.8454  20.0172  21.0521  21.8619  22.0258
    23.4524  23.9463  24.5974  25.1577  26.8601  27.4736  27.7702  28.0160
    28.8287  29.6610  30.3603  30.6668  31.1031  31.1582  31.8748  32.4255
    32.9013  33.8673  34.9509  35.4864  35.7626  35.9465  36.9140  37.6350

          k = 0.4444 0.3849 0.0000 ( 10005 PWs)   bands (ev):

   -77.6673 -77.6636 -77.6590 -40.9963 -40.9746 -40.9708 -40.9659 -40.9610
   -40.9279 -40.9222 -40.9080 -40.8871  -4.9346  -4.9210  -4.8821  -4.8428
    -4.8208  -4.8060  -4.7636  -4.7353  -4.7050  -4.6920  -4.6900  -4.6774
    -4.6484  -4.6474  -4.6414   7.0259   7.4992   9.4500  12.0534  13.5176
    13.6742  14.0277  14.4139  14.4491  14.6654  14.6943  14.8682  15.3194
    15.6103  15.8070  15.9797  16.2726  16.3876  17.4186  17.7388  18.1347
    18.4438  18.9157  19.7757  19.9555  20.2027  20.9185  21.6231  22.0900
    23.2274  23.9293  24.3369  25.1197  27.1073  27.7035  27.9081  28.3118
    29.1639  29.9995  30.0601  30.4627  30.8609  30.8744  31.8383  32.3533
    32.8765  33.6433  34.4938  35.4775  35.8291  36.3768  37.3602  38.0664

          k = 0.4583 0.3608 0.0000 ( 10017 PWs)   bands (ev):

   -77.6674 -77.6635 -77.6590 -40.9974 -40.9748 -40.9706 -40.9659 -40.9595
   -40.9289 -40.9216 -40.9088 -40.8862  -4.9332  -4.9185  -4.8875  -4.8441
    -4.8203  -4.8033  -4.7600  -4.7385  -4.7040  -4.6923  -4.6901  -4.6779
    -4.6486  -4.6474  -4.6425   6.9950   7.4760   9.6220  11.8802  13.5104
    13.6632  14.0393  14.4415  14.4837  14.6594  14.6969  14.8871  15.2851
    15.6016  15.8029  16.0121  16.2924  16.3559  17.4104  17.6935  18.1853
    18.4253  18.9692  19.8082  20.0963  20.3717  20.7562  21.3847  22.2095
    23.0258  23.9141  24.0899  25.0947  27.3301  27.9404  28.0333  28.6032
    29.4725  29.7699  30.2140  30.2854  30.6630  30.7302  31.8104  32.2754
    32.8571  33.3653  34.0941  35.2606  36.1329  36.7905  37.7969  38.5022

          k = 0.4722 0.3368 0.0000 ( 10022 PWs)   bands (ev):

   -77.6675 -77.6634 -77.6590 -40.9982 -40.9748 -40.9706 -40.9659 -40.9584
   -40.9296 -40.9212 -40.9095 -40.8855  -4.9323  -4.9154  -4.8926  -4.8450
    -4.8200  -4.8012  -4.7565  -4.7419  -4.7033  -4.6924  -4.6902  -4.6783
    -4.6487  -4.6475  -4.6433   6.9730   7.4591   9.7664  11.7344  13.5050
    13.6553  14.0477  14.4360  14.5394  14.6499  14.6989  14.9037  15.2575
    15.5953  15.7995  16.0403  16.3077  16.3278  17.4059  17.6604  18.2265
    18.4118  19.0036  19.8517  20.2620  20.5118  20.6019  21.1518  22.3434
    22.8616  23.8746  23.9023  25.0781  27.5125  28.1366  28.1750  28.8900
    29.4978  29.7097  30.0795  30.1446  30.5432  30.9317  31.7907  32.1897
    32.8433  33.0563  33.7785  35.1175  36.3780  37.1654  38.2070  38.9116

          k = 0.4861 0.3127 0.0000 ( 10010 PWs)   bands (ev):

   -77.6675 -77.6634 -77.6590 -40.9987 -40.9749 -40.9705 -40.9659 -40.9578
   -40.9301 -40.9209 -40.9099 -40.8851  -4.9319  -4.9122  -4.8969  -4.8456
    -4.8198  -4.8000  -4.7530  -4.7452  -4.7028  -4.6926  -4.6902  -4.6786
    -4.6488  -4.6475  -4.6438   6.9597   7.4489   9.8657  11.6340  13.5016
    13.6506  14.0528  14.4328  14.5814  14.6359  14.7002  14.9154  15.2392
    15.5915  15.7973  16.0607  16.3074  16.3173  17.4037  17.6401  18.2534
    18.4036  19.0225  19.8957  20.4407  20.4852  20.6069  20.9341  22.4545
    22.7517  23.7176  23.8950  25.0685  27.6348  28.2062  28.3827  29.1646
    29.2679  29.8271  29.8279  30.0523  30.5247  31.2091  31.7790  32.1097
    32.7759  32.8350  33.5760  35.0385  36.5403  37.4534  38.5466  39.2421

          k = 0.5000 0.2887 0.0000 ( 10026 PWs)   bands (ev):

   -77.6675 -77.6634 -77.6590 -40.9988 -40.9749 -40.9705 -40.9659 -40.9575
   -40.9303 -40.9208 -40.9100 -40.8850  -4.9317  -4.9106  -4.8989  -4.8458
    -4.8197  -4.7995  -4.7506  -4.7475  -4.7027  -4.6926  -4.6902  -4.6787
    -4.6488  -4.6475  -4.6440   6.9553   7.4455   9.9017  11.5977  13.5005
    13.6490  14.0545  14.4317  14.6056  14.6210  14.7006  14.9197  15.2327
    15.5902  15.7966  16.0684  16.2997  16.3206  17.4031  17.6333  18.2628
    18.4008  19.0285  19.9162  20.4394  20.5625  20.6409  20.7995  22.4996
    22.7127  23.6577  23.8925  25.0653  27.6783  28.2311  28.4823  29.1609
    29.3403  29.6544  29.8532  30.0198  30.5408  31.3390  31.7751  32.0741
    32.6481  32.8322  33.5066  35.0135  36.5975  37.5686  38.6973  39.3824

          k = 0.4583 0.2646 0.0000 ( 10008 PWs)   bands (ev):

   -77.6677 -77.6632 -77.6590 -40.9996 -40.9751 -40.9703 -40.9659 -40.9574
   -40.9312 -40.9201 -40.9091 -40.8850  -4.9318  -4.9099  -4.8982  -4.8455
    -4.8202  -4.7996  -4.7500  -4.7478  -4.7027  -4.6929  -4.6904  -4.6786
    -4.6511  -4.6458  -4.6447   6.8248   7.5970   9.9059  11.6096  13.4908
    13.6412  14.0574  14.4130  14.6061  14.6304  14.7090  14.9166  15.2213
    15.5675  15.8205  16.0744  16.3068  16.3206  17.3994  17.5530  18.2302
    18.4991  19.0740  19.7568  20.2991  20.6464  20.7007  20.9215  22.4734
    22.7186  23.6500  23.7128  25.4346  27.5793  27.8347  28.8900  28.9634
    29.0052  29.7738  30.2050  30.2389  30.3669  31.4014  31.5431  31.7657
    32.8470  33.2377  33.3927  35.2820  36.5222  37.6540  38.5100  39.4806

          k = 0.4167 0.2406 0.0000 (  9988 PWs)   bands (ev):

   -77.6681 -77.6628 -77.6590 -41.0018 -40.9755 -40.9699 -40.9659 -40.9571
   -40.9335 -40.9182 -40.9070 -40.8848  -4.9320  -4.9076  -4.8963  -4.8448
    -4.8217  -4.7998  -4.7487  -4.7487  -4.7025  -4.6938  -4.6911  -4.6785
    -4.6546  -4.6470  -4.6439   6.5986   7.8855   9.9186  11.6451  13.4633
    13.6196  14.0644  14.3648  14.6071  14.6505  14.7334  14.9062  15.1881
    15.5177  15.8737  16.0917  16.3207  16.3261  17.3819  17.3881  18.1505
    18.7227  19.1882  19.4555  20.0721  20.6639  20.9389  21.0827  22.3030
    22.7360  23.4324  23.8783  26.1354  27.3363  27.3543  28.5230  28.5987
    29.3831  30.0154  30.1133  30.6683  30.7346  30.8039  31.1941  31.9498
    33.1214  33.2144  33.9512  35.8975  36.3504  37.8520  38.1732  39.3712

          k = 0.3750 0.2165 0.0000 (  9984 PWs)   bands (ev):

   -77.6686 -77.6623 -77.6590 -41.0051 -40.9760 -40.9694 -40.9659 -40.9567
   -40.9365 -40.9152 -40.9041 -40.8846  -4.9324  -4.9040  -4.8930  -4.8436
    -4.8237  -4.8000  -4.7501  -4.7473  -4.7019  -4.6954  -4.6922  -4.6783
    -4.6586  -4.6506  -4.6423   6.3718   8.2140   9.9406  11.7036  13.4220
    13.5887  14.0725  14.2977  14.6076  14.6703  14.7721  14.8852  15.1358
    15.4604  15.9365  16.1182  16.3208  16.3527  17.1926  17.3686  18.0524
    18.9942  19.1392  19.3140  19.8807  20.6981  21.1237  21.1552  21.9922
    22.7646  23.5458  24.1513  26.8913  26.9029  27.0325  28.0628  28.2151
    29.6421  29.7137  30.4408  30.4984  30.5507  31.1598  31.2727  32.4218
    33.0378  33.4311  34.7303  36.1507  36.6568  37.8108  38.0824  38.7962

          k = 0.3333 0.1925 0.0000 (  9990 PWs)   bands (ev):

   -77.6691 -77.6618 -77.6590 -41.0090 -40.9766 -40.9688 -40.9659 -40.9563
   -40.9397 -40.9117 -40.9012 -40.8843  -4.9331  -4.8990  -4.8884  -4.8420
    -4.8258  -4.8002  -4.7520  -4.7467  -4.7003  -4.6976  -4.6941  -4.6781
    -4.6632  -4.6553  -4.6409   6.1617   8.5609   9.9739  11.7841  13.3721
    13.5530  14.0787  14.2166  14.6055  14.6853  14.8220  14.8491  15.0679
    15.4032  16.0007  16.1507  16.3210  16.3796  17.0116  17.3405  17.9537
    18.8468  19.2774  19.3182  19.8509  20.7581  20.9110  21.3246  21.8336
    22.8034  23.8698  24.5208  26.4508  26.7181  27.4212  27.8441  27.8698
    29.2341  29.4077  29.9320  30.7755  30.9629  31.6817  31.7622  32.9270
    32.9768  33.7166  35.5288  35.9606  37.3984  37.4350  37.9306  38.1217

          k = 0.2917 0.1684 0.0000 ( 10010 PWs)   bands (ev):

   -77.6697 -77.6612 -77.6590 -41.0132 -40.9772 -40.9682 -40.9659 -40.9560
   -40.9429 -40.9077 -40.8984 -40.8839  -4.9340  -4.8929  -4.8829  -4.8401
    -4.8277  -4.8002  -4.7543  -4.7476  -4.7007  -4.6975  -4.6967  -4.6778
    -4.6679  -4.6608  -4.6396   5.9733   8.9128  10.0237  11.8848  13.3176
    13.5162  14.0818  14.1244  14.5971  14.6935  14.7952  14.8791  14.9885
    15.3492  16.0628  16.1854  16.3212  16.3991  16.8482  17.3048  17.8621
    18.5971  19.1414  19.5457  20.0190  20.5485  20.8602  21.4481  21.8503
    22.8514  24.3036  24.9662  26.0332  26.4203  27.1065  27.4960  28.3084
    28.6521  29.1311  29.5755  31.3234  31.4570  32.1079  32.2232  33.0770
    33.4482  34.0147  35.7547  36.3663  36.7991  36.9502  37.5513  38.3681

          k = 0.2500 0.1443 0.0000 ( 10012 PWs)   bands (ev):

   -77.6702 -77.6607 -77.6590 -41.0173 -40.9777 -40.9677 -40.9659 -40.9557
   -40.9459 -40.9038 -40.8960 -40.8833  -4.9350  -4.8858  -4.8766  -4.8379
    -4.8289  -4.7999  -4.7568  -4.7499  -4.7046  -4.7006  -4.6938  -4.6775
    -4.6724  -4.6664  -4.6385   5.8083   9.2491  10.1042  12.0033  13.2602
    13.4811  14.0248  14.0817  14.5755  14.6817  14.7348  14.9042  14.9390
    15.3003  16.1204  16.2186  16.3215  16.4047  16.7063  17.2662  17.7782
    18.3996  18.8897  19.7716  20.1170  20.3653  21.0269  21.5347  21.9212
    22.9064  24.7955  25.4503  25.6361  26.1678  26.7305  27.1766  28.0781
    28.1103  28.8906  29.9934  31.9063  31.9636  32.2452  32.7776  33.3779
    33.9565  34.3059  35.5986  36.0518  36.1429  37.1491  37.2197  38.5905

          k = 0.2083 0.1203 0.0000 ( 10008 PWs)   bands (ev):

   -77.6707 -77.6602 -77.6590 -41.0211 -40.9782 -40.9672 -40.9659 -40.9555
   -40.9486 -40.9001 -40.8940 -40.8825  -4.9361  -4.8781  -4.8700  -4.8355
    -4.8296  -4.7990  -4.7594  -4.7534  -4.7095  -4.7057  -4.6896  -4.6773
    -4.6762  -4.6716  -4.6375   5.6678   9.5300  10.2476  12.1359  13.1969
    13.4495  13.9243  14.0790  14.5284  14.6006  14.7189  14.8282  14.9975
    15.2574  16.1718  16.2468  16.3221  16.3932  16.5875  17.2318  17.6959
    18.2547  18.6162  19.8954  19.9359  20.6210  21.2736  21.5942  22.0082
    22.9657  25.2541  25.3006  25.7497  26.1682  26.3888  26.8908  27.5460
    27.6014  28.6929  30.7801  32.2818  32.4641  32.4931  33.3373  33.7533
    34.3255  34.4112  35.4288  35.4654  35.6170  36.9940  37.7884  38.4653

          k = 0.1667 0.0962 0.0000 ( 10010 PWs)   bands (ev):

   -77.6711 -77.6598 -77.6590 -41.0244 -40.9787 -40.9667 -40.9659 -40.9554
   -40.9508 -40.8969 -40.8926 -40.8816  -4.9372  -4.8702  -4.8637  -4.8332
    -4.8297  -4.7974  -4.7620  -4.7574  -4.7152  -4.7120  -4.6855  -4.6791
    -4.6771  -4.6761  -4.6366   5.5523   9.7134  10.4865  12.2769  13.1187
    13.4225  13.8340  14.0747  14.4448  14.4841  14.7181  14.7748  15.0506
    15.2214  16.2153  16.2673  16.3230  16.3675  16.4922  17.2078  17.6034
    18.1549  18.3689  19.7197  20.0408  20.9251  21.5950  21.6341  22.1031
    23.0256  24.8783  25.6227  25.7234  26.1090  26.6394  26.6439  27.0761
    27.1473  28.5492  31.5600  32.3657  32.9117  33.0630  33.8910  33.9198
    34.1221  34.1723  35.3640  35.4347  35.7332  36.8387  38.0787  38.1081

          k = 0.1250 0.0722 0.0000 ( 10000 PWs)   bands (ev):

   -77.6714 -77.6595 -77.6590 -41.0272 -40.9790 -40.9664 -40.9659 -40.9553
   -40.9527 -40.8942 -40.8916 -40.8807  -4.9382  -4.8627  -4.8582  -4.8311
    -4.8293  -4.7950  -4.7644  -4.7614  -4.7213  -4.7189  -4.6818  -4.6812
    -4.6795  -4.6769  -4.6358   5.4622   9.8115  10.7947  12.4177  13.0130
    13.4009  13.7689  14.0699  14.3330  14.3557  14.7182  14.7445  15.0949
    15.1929  16.2497  16.2788  16.3245  16.3356  16.4200  17.1954  17.4943
    18.0899  18.1898  19.6025  20.1031  21.2196  21.6601  21.9706  22.2043
    23.0814  24.4974  25.4718  25.7493  25.9784  26.4416  26.6882  27.0240
    27.1336  28.4847  31.9604  32.8276  33.0317  33.3083  33.5871  33.8431
    34.4194  34.4574  35.3026  35.8211  36.1616  36.7604  37.7547  38.1505

          k = 0.0833 0.0481 0.0000 ( 10018 PWs)   bands (ev):

   -77.6717 -77.6593 -77.6590 -41.0292 -40.9793 -40.9661 -40.9659 -40.9552
   -40.9540 -40.8922 -40.8910 -40.8800  -4.9389  -4.8564  -4.8539  -4.8294
    -4.8286  -4.7921  -4.7663  -4.7648  -4.7268  -4.7254  -4.6826  -4.6819
    -4.6790  -4.6767  -4.6353   5.3977   9.8628  11.1102  12.5443  12.8764
    13.3852  13.7389  14.0655  14.2178  14.2314  14.7183  14.7286  15.1282
    15.1722  16.2736  16.2824  16.3067  16.3268  16.3698  17.1912  17.3849
    18.0501  18.0859  19.5286  20.1383  21.4677  21.6760  22.3092  22.3804
    23.1274  24.1017  25.3572  25.5456  25.7707  26.2904  26.4001  27.2968
    27.5047  28.5478  32.0179  32.5862  32.7205  33.5831  34.0171  34.0897
    34.7303  34.8871  35.2926  36.1616  36.6264  36.7810  37.4129  38.0059

          k = 0.0417 0.0241 0.0000 ( 10023 PWs)   bands (ev):

   -77.6718 -77.6591 -77.6590 -41.0304 -40.9794 -40.9660 -40.9658 -40.9551
   -40.9549 -40.8910 -40.8907 -40.8795  -4.9394  -4.8520  -4.8513  -4.8282
    -4.8280  -4.7895  -4.7676  -4.7672  -4.7307  -4.7303  -4.6834  -4.6832
    -4.6772  -4.6766  -4.6350   5.3590   9.8886  11.3666  12.6365  12.7371
    13.3757  13.7382  14.0626  14.1291  14.1342  14.7183  14.7207  15.1486
    15.1597  16.2814  16.2870  16.2872  16.3295  16.3404  17.1908  17.3060
    18.0287  18.0363  19.4878  20.1561  21.6312  21.6846  22.4014  22.8067
    23.1579  23.6894  25.2869  25.3489  25.6037  26.1965  26.2239  27.5980
    27.6799  28.7268  32.0005  32.1441  32.3150  34.2305  34.2913  34.3697
    34.9721  35.2304  35.3311  36.3620  36.8337  36.9323  37.1769  37.6919

          k = 0.0000 0.0000 0.0000 ( 10021 PWs)   bands (ev):

   -77.6718 -77.6591 -77.6590 -41.0308 -40.9795 -40.9660 -40.9658 -40.9551
   -40.9551 -40.8906 -40.8906 -40.8793  -4.9396  -4.8505  -4.8504  -4.8278
    -4.8278  -4.7885  -4.7680  -4.7680  -4.7322  -4.7322  -4.6837  -4.6837
    -4.6766  -4.6766  -4.6348   5.3461   9.8965  11.4729  12.6710  12.6711
    13.3725  13.7437  14.0615  14.0952  14.0952  14.7182  14.7183  15.1554
    15.1555  16.2803  16.2804  16.2910  16.3307  16.3308  17.1910  17.2778
    18.0219  18.0220  19.4748  20.1616  21.6873  21.6874  22.4410  23.1685
    23.1686  23.3329  25.2632  25.2633  25.5513  26.1646  26.1647  27.7213
    27.7213  28.8306  31.9645  31.9646  32.1901  34.3810  34.4821  34.4821
    35.1210  35.3613  35.3613  36.4478  36.8106  36.8106  37.3585  37.6126

          k = 0.0000 0.0000 0.0516 ( 10021 PWs)   bands (ev):

   -77.6718 -77.6591 -77.6590 -41.0308 -40.9795 -40.9660 -40.9658 -40.9551
   -40.9551 -40.8906 -40.8906 -40.8793  -4.9393  -4.8504  -4.8504  -4.8280
    -4.8280  -4.7881  -4.7688  -4.7688  -4.7319  -4.7319  -4.6832  -4.6832
    -4.6766  -4.6766  -4.6347   5.3608   9.8841  11.4625  12.6872  12.6873
    13.3954  13.5879  14.0993  14.0994  14.1731  14.7182  14.7182  15.1567
    15.1568  16.2804  16.2805  16.2902  16.3293  16.3294  17.1910  17.2811
    17.9991  17.9992  19.5524  20.0988  21.6391  21.6392  22.1177  23.0302
    23.0303  23.6802  25.4447  25.4448  25.6589  26.2108  26.2109  27.7767
    27.7767  28.8488  31.9635  31.9636  32.1909  34.3613  34.4263  34.4263
    35.1251  35.3329  35.3329  36.3211  36.8242  36.8242  37.2922  37.4179

          k = 0.0000 0.0000 0.1033 ( 10003 PWs)   bands (ev):

   -77.6718 -77.6591 -77.6590 -41.0308 -40.9795 -40.9660 -40.9658 -40.9551
   -40.9551 -40.8906 -40.8906 -40.8793  -4.9384  -4.8502  -4.8502  -4.8287
    -4.8287  -4.7870  -4.7711  -4.7710  -4.7311  -4.7311  -4.6819  -4.6819
    -4.6767  -4.6766  -4.6344   5.4049   9.8449  11.4329  12.7358  12.7359
    13.3137  13.4624  14.1114  14.1115  14.3254  14.7179  14.7180  15.1606
    15.1607  16.2807  16.2808  16.2879  16.3252  16.3253  17.1911  17.2859
    17.9303  17.9304  19.7522  19.9564  21.5036  21.5037  21.5783  22.7141
    22.7142  24.2914  25.8904  25.8905  25.9651  26.3398  26.3399  27.9432
    27.9432  28.9035  31.9607  31.9607  32.1927  34.2558  34.2558  34.3038
    35.1375  35.2534  35.2534  35.9942  36.8619  36.8619  37.0130  37.1306

          k = 0.0000 0.0000 0.1549 (  9991 PWs)   bands (ev):

   -77.6718 -77.6591 -77.6590 -41.0308 -40.9796 -40.9660 -40.9658 -40.9551
   -40.9551 -40.8906 -40.8906 -40.8793  -4.9371  -4.8499  -4.8499  -4.8297
    -4.8297  -4.7852  -4.7745  -4.7745  -4.7299  -4.7299  -4.6799  -4.6799
    -4.6767  -4.6767  -4.6339   5.4782   9.7733  11.3887  12.8161  12.8162
    13.0218  13.5683  14.1304  14.1305  14.4457  14.7175  14.7175  15.1675
    15.1676  16.2811  16.2812  16.2842  16.3187  16.3187  17.1911  17.2804
    17.8147  17.8148  19.6329  20.2019  21.0260  21.3025  21.3027  22.3504
    22.3505  24.9626  26.4321  26.4700  26.4701  26.5307  26.5308  28.2197
    28.2198  28.9942  31.9566  31.9566  32.1938  33.9707  33.9707  34.2118
    35.1360  35.1360  35.1575  35.5578  36.3961  36.9170  36.9170  36.9306

          k = 0.0000 0.0000 0.2066 (  9960 PWs)   bands (ev):

   -77.6718 -77.6591 -77.6590 -41.0307 -40.9796 -40.9659 -40.9658 -40.9551
   -40.9551 -40.8906 -40.8906 -40.8793  -4.9353  -4.8495  -4.8495  -4.8310
    -4.8310  -4.7828  -4.7788  -4.7788  -4.7282  -4.7282  -4.6775  -4.6775
    -4.6769  -4.6769  -4.6333   5.5804   9.6615  11.3356  12.7468  12.9274
    12.9275  13.7066  14.1549  14.1550  14.5338  14.7167  14.7167  15.1780
    15.1781  16.2794  16.2814  16.2815  16.3103  16.3104  17.1911  17.2545
    17.6521  17.6522  19.3545  20.4911  20.6978  21.0614  21.0615  22.0028
    22.0029  25.6621  26.7640  26.7640  27.0201  27.1185  27.1186  28.6001
    28.6002  29.1204  31.9524  31.9524  32.1896  33.5876  33.5876  34.0865
    34.9950  34.9950  35.0723  35.1842  35.5789  36.8415  36.8415  36.9835

          k = 0.0000 0.0000 0.2582 (  9954 PWs)   bands (ev):

   -77.6718 -77.6591 -77.6590 -41.0307 -40.9797 -40.9659 -40.9658 -40.9552
   -40.9551 -40.8906 -40.8906 -40.8793  -4.9332  -4.8490  -4.8490  -4.8325
    -4.8325  -4.7836  -4.7836  -4.7801  -4.7263  -4.7262  -4.6771  -4.6771
    -4.6750  -4.6750  -4.6326   5.7107   9.5022  11.2789  12.5119  13.0682
    13.0683  13.8702  14.1829  14.1830  14.5976  14.7153  14.7153  15.1925
    15.1926  16.2738  16.2813  16.2814  16.3008  16.3008  17.1912  17.2009
    17.4448  17.4449  19.0749  19.9825  20.8028  20.8029  21.2992  21.6972
    21.6973  26.3788  27.0284  27.0285  27.6968  27.8047  27.8048  29.0722
    29.0723  29.2812  31.9499  31.9499  32.1677  33.1356  33.1357  33.9075
    34.5694  34.7321  34.8422  34.8422  35.2165  36.8480  36.8480  37.0570

          k = 0.0000 0.0000 0.3099 (  9972 PWs)   bands (ev):

   -77.6718 -77.6591 -77.6590 -41.0306 -40.9798 -40.9659 -40.9658 -40.9552
   -40.9552 -40.8906 -40.8906 -40.8793  -4.9310  -4.8484  -4.8484  -4.8341
    -4.8341  -4.7885  -4.7885  -4.7772  -4.7240  -4.7240  -4.6775  -4.6775
    -4.6726  -4.6726  -4.6318   5.8684   9.2932  11.2230  12.3302  13.2367
    13.2368  14.0523  14.2119  14.2120  14.6450  14.7130  14.7130  15.2113
    15.2114  16.2678  16.2801  16.2802  16.2907  16.2908  17.1164  17.1913
    17.1991  17.1992  18.8258  19.5059  20.5449  20.5450  21.4429  21.4430
    21.9803  27.1037  27.3204  27.3204  28.4370  28.5085  28.5086  29.4757
    29.6210  29.6211  31.9526  31.9526  32.0871  32.6432  32.6432  33.5244
    34.0658  34.1097  34.6848  34.6848  35.2529  36.9275  36.9275  37.0654

          k = 0.0000 0.0000 0.3615 (  9936 PWs)   bands (ev):

   -77.6718 -77.6591 -77.6590 -41.0306 -40.9799 -40.9659 -40.9658 -40.9552
   -40.9552 -40.8906 -40.8906 -40.8793  -4.9288  -4.8479  -4.8479  -4.8357
    -4.8357  -4.7933  -4.7932  -4.7743  -4.7217  -4.7216  -4.6780  -4.6780
    -4.6703  -4.6703  -4.6310   6.0521   9.0395  11.1714  12.2033  13.4299
    13.4300  14.2399  14.2400  14.2454  14.6816  14.7090  14.7090  15.2338
    15.2339  16.2618  16.2762  16.2763  16.2809  16.2810  16.9264  16.9265
    17.0029  17.1913  18.6243  19.0666  20.3023  20.3024  21.2407  21.2407
    22.7227  27.6395  27.6395  27.8258  29.2101  29.2102  29.2168  29.7025
    30.2312  30.2313  31.8065  31.9668  31.9668  32.1314  32.1314  32.9722
    33.5707  33.8564  34.5254  34.5254  35.2915  36.9104  37.0584  37.0584

          k = 0.0000 0.0000 0.4132 (  9966 PWs)   bands (ev):

   -77.6718 -77.6591 -77.6590 -41.0306 -40.9799 -40.9659 -40.9658 -40.9552
   -40.9552 -40.8906 -40.8906 -40.8793  -4.9268  -4.8474  -4.8474  -4.8372
    -4.8372  -4.7975  -4.7975  -4.7715  -4.7193  -4.7193  -4.6787  -4.6786
    -4.6684  -4.6684  -4.6302   6.2596   8.7533  11.1264  12.1238  13.6435
    13.6436  14.2648  14.2649  14.4404  14.7020  14.7020  14.7111  15.2586
    15.2587  16.2563  16.2630  16.2631  16.2720  16.2721  16.6467  16.6468
    16.8709  17.1914  18.4747  18.6721  20.0864  20.0866  21.0864  21.0865
    23.5116  27.9859  27.9859  28.5283  29.8821  29.8822  29.9600  29.9822
    30.8882  30.8883  31.1960  31.6147  31.6147  32.0055  32.0056  32.7058
    33.0903  33.7058  34.3614  34.3614  35.3309  36.7373  37.2063  37.2063

          k = 0.0000 0.0000 0.4648 (  9996 PWs)   bands (ev):

   -77.6718 -77.6591 -77.6590 -41.0305 -40.9800 -40.9659 -40.9658 -40.9552
   -40.9552 -40.8906 -40.8906 -40.8793  -4.9250  -4.8469  -4.8469  -4.8385
    -4.8384  -4.8011  -4.8011  -4.7692  -4.7172  -4.7172  -4.6793  -4.6793
    -4.6668  -4.6668  -4.6296   6.4867   8.4503  11.0899  12.0795  13.8704
    13.8704  14.2851  14.2852  14.6253  14.6893  14.6893  14.7354  15.2832
    15.2833  16.2008  16.2009  16.2515  16.2644  16.2645  16.4180  16.4181
    16.7381  17.1914  18.3332  18.3720  19.9072  19.9073  20.9743  20.9744
    24.3316  28.3595  28.3595  29.1838  30.0826  30.2454  30.4774  30.4774
    31.0616  31.0994  31.0994  31.5792  31.5793  32.0956  32.0956  32.6298
    32.6369  33.5884  34.1850  34.1851  35.3704  36.5072  36.9557  36.9558

          k = 0.0000 0.0000 0.5164 (  9966 PWs)   bands (ev):

   -77.6718 -77.6591 -77.6590 -41.0305 -40.9800 -40.9659 -40.9658 -40.9552
   -40.9552 -40.8906 -40.8906 -40.8793  -4.9237  -4.8465  -4.8465  -4.8394
    -4.8394  -4.8038  -4.8038  -4.7674  -4.7155  -4.7155  -4.6799  -4.6799
    -4.6656  -4.6656  -4.6291   6.7244   8.1506  11.0631  12.0581  14.0982
    14.0982  14.3000  14.3001  14.6645  14.6645  14.7544  14.7831  15.3045
    15.3045  16.0153  16.0155  16.2479  16.2587  16.2588  16.3402  16.3403
    16.6249  17.1915  18.0660  18.3069  19.7726  19.7727  20.8987  20.8988
    25.1597  28.7591  28.7591  29.2747  29.7459  30.5537  30.5978  30.5979
    30.9210  30.9210  31.7736  32.1957  32.2722  32.2723  32.2785  32.2785
    32.6322  33.4966  33.9873  33.9873  35.4120  36.1447  36.1690  36.1691

          k = 0.0000 0.0000 0.5681 (  9960 PWs)   bands (ev):

   -77.6718 -77.6591 -77.6590 -41.0305 -40.9801 -40.9659 -40.9658 -40.9552
   -40.9552 -40.8906 -40.8906 -40.8793  -4.9228  -4.8463  -4.8463  -4.8400
    -4.8400  -4.8054  -4.8054  -4.7662  -4.7144  -4.7144  -4.6803  -4.6803
    -4.6649  -4.6649  -4.6288   6.9458   7.8887  11.0467  12.0496  14.3036
    14.3036  14.3091  14.3091  14.6168  14.6169  14.7670  14.8923  15.3189
    15.3190  15.8344  15.8346  16.2456  16.2552  16.2553  16.3250  16.3251
    16.5489  17.1915  17.8914  18.2713  19.6891  19.6892  20.8552  20.8553
    25.9307  28.4704  29.1821  29.1822  30.1121  30.1121  30.1428  30.8670
    31.1606  31.1607  31.8066  32.3980  32.5402  32.5402  32.6831  32.8995
    32.8996  33.4294  33.7792  33.7793  35.4618  35.4651  35.4652  35.6763

          k = 0.0000 0.0000 0.6197 (  9948 PWs)   bands (ev):

   -77.6718 -77.6591 -77.6590 -41.0305 -40.9801 -40.9659 -40.9658 -40.9552
   -40.9552 -40.8906 -40.8906 -40.8793  -4.9225  -4.8462  -4.8462  -4.8402
    -4.8402  -4.8060  -4.8060  -4.7659  -4.7140  -4.7140  -4.6805  -4.6805
    -4.6647  -4.6647  -4.6287   7.0571   7.7635  11.0411  12.0476  14.3121
    14.3122  14.4183  14.4183  14.5643  14.5645  14.7715  14.9317  15.3241
    15.3241  15.7621  15.7622  16.2448  16.2540  16.2540  16.3220  16.3221
    16.5221  17.1915  17.8301  18.2600  19.6608  19.6609  20.8410  20.8411
    26.3435  28.0438  29.5661  29.5661  29.7071  29.7071  30.2892  31.0618
    31.2296  31.2297  31.5865  32.5540  32.6904  32.6904  32.8421  33.2092
    33.2093  33.3950  33.6653  33.6654  35.1289  35.1290  35.4269  35.5004

 ------ SPIN DOWN ----------


          k = 0.0000 0.0000 0.0000 ( 10021 PWs)   bands (ev):

   -77.6718 -77.6591 -77.6589 -41.0308 -40.9794 -40.9659 -40.9658 -40.9551
   -40.9551 -40.8906 -40.8905 -40.8793  -4.9396  -4.8505  -4.8504  -4.8278
    -4.8278  -4.7885  -4.7680  -4.7680  -4.7322  -4.7322  -4.6837  -4.6837
    -4.6766  -4.6766  -4.6348   5.3461   9.8965  11.4729  12.6710  12.6711
    13.3725  13.7438  14.0615  14.0951  14.0952  14.7183  14.7183  15.1555
    15.1555  16.2804  16.2805  16.2910  16.3307  16.3308  17.1910  17.2778
    18.0219  18.0220  19.4748  20.1616  21.6873  21.6874  22.4410  23.1685
    23.1686  23.3329  25.2632  25.2633  25.5513  26.1646  26.1648  27.7213
    27.7213  28.8306  31.9645  31.9646  32.1901  34.3810  34.4821  34.4821
    35.1209  35.3613  35.3613  36.4478  36.8106  36.8106  37.3585  37.6126

          k = 0.0278 0.0481 0.0000 ( 10021 PWs)   bands (ev):

   -77.6718 -77.6591 -77.6589 -41.0302 -40.9794 -40.9660 -40.9658 -40.9551
   -40.9547 -40.8911 -40.8907 -40.8795  -4.9394  -4.8525  -4.8516  -4.8283
    -4.8281  -4.7899  -4.7674  -4.7669  -4.7302  -4.7297  -4.6833  -4.6831
    -4.6774  -4.6766  -4.6350   5.3633   9.8859  11.3341  12.6259  12.7560
    13.3767  13.7371  14.0629  14.1414  14.1448  14.7183  14.7215  15.1464
    15.1610  16.2819  16.2856  16.2893  16.3289  16.3438  17.1908  17.3152
    18.0314  18.0409  19.4922  20.1542  21.6144  21.6816  22.3898  22.7400
    23.1553  23.7534  25.2897  25.3812  25.6205  26.2080  26.2426  27.5516
    27.6738  28.6958  32.0407  32.1457  32.3805  34.1781  34.2603  34.2944
    34.9510  35.1993  35.3135  36.3352  36.7896  37.0035  37.1358  37.7300

          k = 0.0555 0.0962 0.0000 ( 10003 PWs)   bands (ev):

   -77.6716 -77.6593 -77.6589 -41.0286 -40.9792 -40.9662 -40.9658 -40.9552
   -40.9536 -40.8928 -40.8911 -40.8802  -4.9387  -4.8586  -4.8546  -4.8297
    -4.8289  -4.7931  -4.7658  -4.7638  -4.7250  -4.7237  -4.6822  -4.6813
    -4.6798  -4.6768  -4.6354   5.4149   9.8512  11.0124  12.5140  12.9204
    13.3894  13.7389  14.0668  14.2521  14.2702  14.7185  14.7323  15.1192
    15.1777  16.2689  16.2851  16.3118  16.3230  16.3845  17.1918  17.4170
    18.0674  18.1042  19.5475  20.1300  21.4169  21.6389  22.2446  22.2946
    23.1273  24.2171  25.3369  25.6981  25.8026  26.3458  26.4653  27.1134
    27.5460  28.4405  32.2484  32.3714  33.0297  33.5289  33.6874  33.8761
    34.8352  34.8704  35.1825  35.9924  36.4753  37.0798  37.1366  38.1566

          k = 0.0833 0.1443 0.0000 (  9989 PWs)   bands (ev):

   -77.6712 -77.6596 -77.6589 -41.0259 -40.9788 -40.9665 -40.9658 -40.9553
   -40.9518 -40.8955 -40.8918 -40.8812  -4.9378  -4.8678  -4.8586  -4.8315
    -4.8300  -4.7966  -4.7637  -4.7592  -4.7177  -4.7164  -4.6835  -4.6802
    -4.6782  -4.6769  -4.6361   5.5008   9.7854  10.6203  12.3855  13.0703
    13.4103  13.7664  14.0720  14.3603  14.4480  14.7190  14.7556  15.0756
    15.2052  16.2415  16.2846  16.3133  16.3405  16.4546  17.1985  17.5442
    18.1561  18.2302  19.6501  20.0835  21.1387  21.5056  21.7603  22.2692
    23.1120  24.6273  25.3857  25.8043  26.1350  26.5969  26.7935  26.8074
    27.3803  28.1984  32.2765  32.4559  33.0032  33.0781  33.2569  33.8659
    34.5484  34.8074  34.9950  35.4284  36.2563  36.9889  37.2034  38.1102

          k = 0.1111 0.1924 0.0000 ( 10007 PWs)   bands (ev):

   -77.6708 -77.6601 -77.6589 -41.0224 -40.9784 -40.9670 -40.9658 -40.9556
   -40.9493 -40.8992 -40.8927 -40.8824  -4.9366  -4.8791  -4.8625  -4.8333
    -4.8310  -4.7999  -4.7615  -4.7537  -4.7098  -4.7095  -4.6882  -4.6770
    -4.6769  -4.6739  -4.6371   5.6207   9.6803  10.2086  12.2859  13.1875
    13.4389  13.8176  14.0770  14.4355  14.6248  14.7199  14.8018  15.0185
    15.2430  16.2045  16.2716  16.2999  16.3697  16.5560  17.2144  17.6392
    18.3255  18.4448  19.8171  20.0093  20.8180  21.2926  21.2936  22.3461
    23.1357  24.9635  25.2494  25.4406  26.5585  26.9751  27.0013  27.2422
    27.2879  28.0277  31.4958  31.9201  32.5138  33.0852  33.4049  33.9630
    34.2455  34.7772  34.8065  35.5412  36.0752  36.8901  37.2750  38.0108

          k = 0.1389 0.2405 0.0000 ( 10015 PWs)   bands (ev):

   -77.6703 -77.6606 -77.6589 -41.0180 -40.9778 -40.9676 -40.9658 -40.9562
   -40.9461 -40.9037 -40.8939 -40.8840  -4.9353  -4.8910  -4.8656  -4.8348
    -4.8316  -4.8030  -4.7601  -4.7479  -4.7038  -4.7029  -4.6935  -4.6771
    -4.6718  -4.6689  -4.6381   5.7743   9.5326   9.7995  12.2439  13.2803
    13.4748  13.8855  14.0795  14.4645  14.7208  14.7618  14.8783  14.9524
    15.2903  16.1595  16.2379  16.2828  16.3975  16.6901  17.2400  17.6832
    18.5528  18.7674  19.9062  20.0691  20.4786  20.8482  21.0591  22.4896
    23.2145  24.5241  25.2312  25.5028  26.6491  27.2087  27.4714  27.5740
    27.7462  28.0992  30.6227  31.1180  31.7281  33.2070  33.4324  33.9483
    33.9529  34.5476  34.8596  35.8812  36.4866  36.8376  37.3508  37.7462

          k = 0.1666 0.2886 0.0000 ( 10007 PWs)   bands (ev):

   -77.6697 -77.6612 -77.6589 -41.0131 -40.9772 -40.9682 -40.9658 -40.9571
   -40.9423 -40.9085 -40.8952 -40.8857  -4.9343  -4.9027  -4.8674  -4.8356
    -4.8317  -4.8062  -4.7600  -4.7420  -4.6994  -4.6986  -4.6978  -4.6770
    -4.6653  -4.6635  -4.6392   5.9610   9.3472   9.4046  12.2699  13.3571
    13.5173  13.9615  14.0766  14.4549  14.7216  14.8438  14.8829  14.9792
    15.3464  16.1080  16.1822  16.2623  16.4241  16.8578  17.2749  17.6952
    18.7830  19.1912  19.7776  20.1232  20.4210  20.4263  20.8499  22.6697
    23.3526  23.8197  25.4547  25.5690  26.5038  27.1479  28.0591  28.1066
    28.2953  28.4307  29.8722  30.3676  30.9471  32.3573  33.6567  33.6586
    34.3181  34.5363  35.0669  35.6902  36.8366  37.1998  37.2166  37.2441

          k = 0.1944 0.3368 0.0000 ( 10007 PWs)   bands (ev):

   -77.6690 -77.6619 -77.6590 -41.0077 -40.9765 -40.9689 -40.9658 -40.9586
   -40.9380 -40.9134 -40.8968 -40.8876  -4.9338  -4.9130  -4.8674  -4.8358
    -4.8311  -4.8097  -4.7617  -4.7365  -4.7030  -4.6962  -4.6944  -4.6767
    -4.6585  -4.6581  -4.6401   6.1797   9.0307   9.1358  12.3617  13.4223
    13.5655  14.0323  14.0653  14.4240  14.7208  14.8167  14.8756  15.0947
    15.4101  16.0516  16.1099  16.2389  16.4500  17.0590  17.3224  17.6927
    18.9881  19.6310  19.6583  19.7681  20.0293  20.7218  20.8207  22.8648
    23.2205  23.5456  25.6289  25.6582  26.3418  27.0042  28.3084  28.4791
    28.7118  28.8295  29.7731  29.8917  30.2400  31.4917  33.3751  33.6801
    34.0962  35.1638  35.4865  35.5055  36.3776  36.5786  36.8342  37.1591

          k = 0.2222 0.3849 0.0000 (  9987 PWs)   bands (ev):

   -77.6683 -77.6626 -77.6590 -41.0020 -40.9757 -40.9697 -40.9658 -40.9610
   -40.9333 -40.9179 -40.8984 -40.8896  -4.9350  -4.9204  -4.8655  -4.8353
    -4.8300  -4.8139  -4.7654  -4.7315  -4.7064  -4.6938  -4.6922  -4.6762
    -4.6543  -4.6518  -4.6404   6.4292   8.6820   8.9127  12.5103  13.4769
    13.6184  14.0427  14.0697  14.3988  14.7163  14.7599  14.8692  15.2178
    15.4797  15.9922  16.0282  16.2133  16.4754  17.2931  17.3897  17.6857
    19.1641  19.4076  19.4753  19.6586  19.9713  20.8528  21.1517  22.8539
    23.0529  23.7835  25.6637  25.8584  26.2195  26.8679  27.6426  28.2131
    28.9599  29.4100  30.0007  30.1367  30.2766  30.7154  33.1081  33.5682
    33.8864  35.2772  35.5888  35.8465  35.8467  36.0180  36.6826  36.8620

          k = 0.2500 0.4330 0.0000 (  9981 PWs)   bands (ev):

   -77.6675 -77.6633 -77.6590 -40.9962 -40.9749 -40.9705 -40.9658 -40.9644
   -40.9287 -40.9214 -40.8998 -40.8918  -4.9385  -4.9238  -4.8617  -4.8341
    -4.8286  -4.8189  -4.7705  -4.7270  -4.7090  -4.6921  -4.6908  -4.6757
    -4.6510  -4.6480  -4.6392   6.7068   8.3616   8.6918  12.7047  13.5206
    13.6747  14.0075  14.0315  14.4155  14.7052  14.7167  14.8397  15.3430
    15.5532  15.9314  15.9427  16.1867  16.4997  17.4856  17.5582  17.6808
    19.0115  19.3148  19.3190  19.3525  19.9854  21.2051  21.3627  22.9078
    23.2081  24.0520  25.6467  26.0654  26.1624  26.6222  27.1001  27.6210
    28.4078  29.7530  30.1393  30.5134  30.7909  31.1616  32.8600  33.4002
    33.6911  34.8395  35.0849  35.0996  36.0447  36.0855  36.7772  36.8059

          k = 0.2777 0.4811 0.0000 (  9989 PWs)   bands (ev):

   -77.6668 -77.6641 -77.6590 -40.9904 -40.9741 -40.9713 -40.9687 -40.9659
   -40.9245 -40.9238 -40.9008 -40.8941  -4.9427  -4.9248  -4.8560  -4.8324
    -4.8273  -4.8249  -4.7758  -4.7231  -4.7112  -4.6909  -4.6900  -4.6751
    -4.6489  -4.6469  -4.6365   7.0073   8.0713   8.4867  12.9336  13.5521
    13.7332  13.9130  13.9611  14.4707  14.6819  14.6887  14.8049  15.4645
    15.6277  15.8554  15.8710  16.1614  16.5217  17.6175  17.6827  17.8507
    18.6393  18.9987  19.1712  19.5072  19.9004  21.0357  22.0213  23.2748
    23.3025  24.3288  25.5363  26.1041  26.1679  26.2851  27.0324  27.0523
    27.7589  28.9895  30.8834  31.1993  31.5300  31.9390  32.6366  33.2184
    33.5106  34.1418  34.3647  34.8801  35.4308  35.5624  37.3633  37.4697

          k = 0.3055 0.5292 0.0000 (  9969 PWs)   bands (ev):

   -77.6660 -77.6648 -77.6590 -40.9847 -40.9738 -40.9733 -40.9720 -40.9659
   -40.9251 -40.9216 -40.9007 -40.8965  -4.9457  -4.9249  -4.8488  -4.8321
    -4.8304  -4.8269  -4.7799  -4.7196  -4.7135  -4.6902  -4.6897  -4.6746
    -4.6476  -4.6469  -4.6343   7.3171   7.8128   8.3161  13.1816  13.5706
    13.7364  13.7923  13.9071  14.5353  14.6421  14.6743  14.7815  15.5765
    15.6986  15.7666  15.8130  16.1411  16.5388  17.6940  17.7895  18.1609
    18.2881  18.7108  19.0446  19.6448  19.8100  20.8637  22.6835  23.3218
    23.5768  24.5704  25.3069  25.8257  26.1010  26.5211  26.7585  27.0757
    27.1774  28.3439  31.6021  31.8781  32.2189  32.4702  32.6684  33.0615
    33.3328  33.5447  33.6765  34.6377  34.8198  35.0570  37.9186  38.2197

          k = 0.3333 0.5773 0.0000 (  9957 PWs)   bands (ev):

   -77.6655 -77.6654 -77.6590 -40.9792 -40.9791 -40.9727 -40.9726 -40.9659
   -40.9255 -40.9206 -40.8990 -40.8989  -4.9467  -4.9250  -4.8404  -4.8404
    -4.8282  -4.8282  -4.7815  -4.7163  -4.7163  -4.6898  -4.6898  -4.6744
    -4.6471  -4.6471  -4.6335   7.5868   7.5872   8.2320  13.3691  13.5759
    13.5759  13.8502  13.8503  14.5925  14.5926  14.6703  14.7742  15.6754
    15.6757  15.7586  15.7589  16.1325  16.5460  17.7069  18.0011  18.0016
    18.4514  18.4519  18.9781  19.7371  19.7371  20.7956  23.0630  23.4421
    23.4430  24.6826  25.2308  25.8706  25.8709  26.7747  26.7754  26.9247
    26.9255  28.0673  32.0783  32.0787  32.5381  32.5797  33.0320  33.0321
    33.1476  33.2722  33.2723  34.4922  34.4922  34.8365  38.2823  38.8346

          k = 0.3472 0.5532 0.0000 (  9967 PWs)   bands (ev):

   -77.6657 -77.6651 -77.6590 -40.9818 -40.9765 -40.9730 -40.9724 -40.9659
   -40.9254 -40.9208 -40.9002 -40.8976  -4.9465  -4.9250  -4.8450  -4.8359
    -4.8295  -4.8270  -4.7811  -4.7180  -4.7148  -4.6900  -4.6897  -4.6745
    -4.6472  -4.6471  -4.6337   7.4867   7.6649   8.2643  13.2949  13.5740
    13.6434  13.8223  13.8782  14.5677  14.6158  14.6711  14.7759  15.6293
    15.7200  15.7336  15.7819  16.1352  16.5437  17.6953  17.9105  18.1202
    18.3332  18.5482  19.0087  19.7107  19.7589  20.8130  23.0051  23.2248
    23.6397  24.6468  25.2274  25.8094  25.9782  26.6864  26.7615  26.9087
    27.1052  28.1248  31.9732  32.0402  32.4692  32.4826  32.9342  32.9994
    33.1510  33.3434  33.4704  34.4942  34.5830  34.9399  38.0562  38.7194

          k = 0.3611 0.5292 0.0000 (  9985 PWs)   bands (ev):

   -77.6660 -77.6648 -77.6590 -40.9844 -40.9739 -40.9733 -40.9721 -40.9659
   -40.9252 -40.9214 -40.9014 -40.8960  -4.9457  -4.9249  -4.8498  -4.8313
    -4.8312  -4.8259  -4.7800  -4.7199  -4.7132  -4.6902  -4.6897  -4.6746
    -4.6473  -4.6472  -4.6342   7.3949   7.6872   8.3635  13.1539  13.5694
    13.7623  13.7952  13.9050  14.5441  14.6347  14.6731  14.7809  15.5828
    15.7101  15.7614  15.7991  16.1436  16.5363  17.6506  17.8792  18.2226
    18.2455  18.5844  19.1091  19.6930  19.7660  20.8619  22.8826  22.9652
    23.8049  24.5390  25.2085  25.8291  26.0059  26.6844  26.7016  27.0465
    27.3247  28.2684  31.8009  31.8578  32.2888  32.3476  32.7078  32.8952
    33.1043  33.6254  33.8244  34.4444  34.8407  35.2261  37.5785  38.2964

          k = 0.3750 0.5051 0.0000 (  9981 PWs)   bands (ev):

   -77.6663 -77.6646 -77.6590 -40.9869 -40.9736 -40.9718 -40.9714 -40.9659
   -40.9248 -40.9222 -40.9026 -40.8943  -4.9445  -4.9249  -4.8549  -4.8332
    -4.8265  -4.8249  -4.7782  -4.7219  -4.7117  -4.6905  -4.6897  -4.6749
    -4.6473  -4.6473  -4.6351   7.3117   7.6712   8.5115  12.9905  13.5627
    13.7696  13.8877  13.9305  14.5225  14.6493  14.6761  14.7890  15.5363
    15.6884  15.8005  15.8102  16.1579  16.5232  17.5885  17.8923  18.1198
    18.3747  18.5778  19.2613  19.6861  19.7630  20.9343  22.6943  22.7220
    23.9084  24.3706  25.1739  25.8442  25.9374  26.7581  26.8560  27.1879
    27.5773  28.4701  31.5600  31.6234  32.1490  32.1513  32.4215  32.7731
    33.0542  33.9788  34.2250  34.3680  35.1943  35.5913  37.0461  37.8209

          k = 0.3889 0.4811 0.0000 (  9979 PWs)   bands (ev):

   -77.6665 -77.6643 -77.6590 -40.9893 -40.9738 -40.9715 -40.9690 -40.9659
   -40.9244 -40.9232 -40.9038 -40.8926  -4.9428  -4.9247  -4.8601  -4.8353
    -4.8239  -4.8219  -4.7759  -4.7242  -4.7103  -4.6908  -4.6897  -4.6753
    -4.6475  -4.6473  -4.6361   7.2371   7.6382   8.6864  12.8134  13.5544
    13.7458  13.9543  14.0103  14.5031  14.6597  14.6797  14.8001  15.4901
    15.6685  15.8157  15.8379  16.1772  16.5042  17.5314  17.9265  18.0253
    18.5044  18.5533  19.4394  19.6931  19.7557  21.0169  22.4346  22.5328
    23.9567  24.1615  25.1218  25.5988  26.1195  26.8887  27.1191  27.3325
    27.8589  28.7169  31.2756  31.3754  31.9089  32.0513  32.1101  32.6659
    33.0082  34.2776  34.3561  34.6450  35.5962  35.9589  36.5047  37.3813

          k = 0.4028 0.4570 0.0000 (  9995 PWs)   bands (ev):

   -77.6667 -77.6641 -77.6590 -40.9914 -40.9741 -40.9713 -40.9667 -40.9659
   -40.9244 -40.9238 -40.9050 -40.8910  -4.9408  -4.9244  -4.8655  -4.8374
    -4.8229  -4.8174  -4.7732  -4.7267  -4.7088  -4.6911  -4.6898  -4.6757
    -4.6478  -4.6474  -4.6374   7.1712   7.6000   8.8748  12.6267  13.5451
    13.7241  13.9762  14.1267  14.4860  14.6660  14.6835  14.8141  15.4446
    15.6506  15.8168  15.8743  16.2001  16.4800  17.4866  17.9393  17.9718
    18.5236  18.6294  19.6295  19.7184  19.7494  21.0883  22.2115  22.3222
    23.9299  23.9687  25.0293  25.3672  26.3495  27.0590  27.4142  27.4790
    28.1654  29.0023  30.9733  31.1287  31.6418  31.7898  31.9784  32.5760
    32.9672  34.1709  34.7399  35.0752  35.9546  36.0380  36.1930  37.1153

          k = 0.4166 0.4330 0.0000 (  9987 PWs)   bands (ev):

   -77.6669 -77.6639 -77.6590 -40.9933 -40.9743 -40.9711 -40.9659 -40.9646
   -40.9256 -40.9233 -40.9061 -40.8895  -4.9386  -4.9238  -4.8711  -4.8394
    -4.8221  -4.8132  -4.7702  -4.7294  -4.7075  -4.6914  -4.6898  -4.6762
    -4.6480  -4.6474  -4.6388   7.1140   7.5624   9.0689  12.4344  13.5355
    13.7048  13.9960  14.2340  14.4714  14.6688  14.6874  14.8305  15.4004
    15.6349  15.8149  15.9101  16.2248  16.4515  17.4543  17.8625  18.0238
    18.4940  18.7436  19.7484  19.7673  19.8240  21.1122  22.0628  22.0966
    23.6899  23.9615  24.8465  25.2245  26.6026  27.2567  27.6258  27.7161
    28.4913  29.3203  30.6661  30.8907  31.3683  31.4698  31.9209  32.4979
    32.9316  34.0387  35.1197  35.4460  35.5105  36.0655  36.4673  37.2577

          k = 0.4305 0.4089 0.0000 (  9993 PWs)   bands (ev):

   -77.6671 -77.6637 -77.6590 -40.9949 -40.9745 -40.9709 -40.9659 -40.9627
   -40.9267 -40.9227 -40.9071 -40.8882  -4.9364  -4.9227  -4.8766  -4.8413
    -4.8214  -4.8094  -4.7670  -4.7323  -4.7062  -4.6917  -4.6899  -4.6768
    -4.6482  -4.6474  -4.6401   7.0656   7.5283   9.2628  12.2412  13.5261
    13.6881  14.0132  14.3303  14.4591  14.6686  14.6910  14.8488  15.3583
    15.6214  15.8113  15.9454  16.2496  16.4201  17.4325  17.7954  18.0794
    18.4670  18.8404  19.7562  19.8454  20.0172  21.0521  21.8619  22.0258
    23.4524  23.9463  24.5974  25.1577  26.8601  27.4736  27.7702  28.0160
    28.8287  29.6610  30.3603  30.6668  31.1031  31.1582  31.8748  32.4255
    32.9013  33.8673  34.9509  35.4864  35.7626  35.9465  36.9140  37.6350

          k = 0.4444 0.3849 0.0000 ( 10005 PWs)   bands (ev):

   -77.6673 -77.6636 -77.6590 -40.9963 -40.9746 -40.9707 -40.9659 -40.9610
   -40.9279 -40.9221 -40.9080 -40.8870  -4.9346  -4.9210  -4.8821  -4.8428
    -4.8208  -4.8060  -4.7636  -4.7353  -4.7050  -4.6920  -4.6900  -4.6774
    -4.6484  -4.6474  -4.6414   7.0259   7.4992   9.4500  12.0535  13.5176
    13.6742  14.0278  14.4139  14.4492  14.6654  14.6943  14.8682  15.3194
    15.6103  15.8070  15.9798  16.2726  16.3876  17.4187  17.7388  18.1347
    18.4438  18.9157  19.7757  19.9555  20.2027  20.9185  21.6231  22.0900
    23.2274  23.9294  24.3369  25.1197  27.1073  27.7035  27.9081  28.3118
    29.1639  29.9995  30.0601  30.4627  30.8609  30.8744  31.8383  32.3533
    32.8765  33.6433  34.4938  35.4775  35.8291  36.3768  37.3602  38.0664

          k = 0.4583 0.3608 0.0000 ( 10017 PWs)   bands (ev):

   -77.6674 -77.6635 -77.6590 -40.9974 -40.9747 -40.9706 -40.9659 -40.9595
   -40.9288 -40.9216 -40.9088 -40.8861  -4.9332  -4.9185  -4.8875  -4.8441
    -4.8203  -4.8033  -4.7600  -4.7385  -4.7040  -4.6923  -4.6901  -4.6779
    -4.6486  -4.6474  -4.6425   6.9950   7.4760   9.6220  11.8802  13.5104
    13.6632  14.0393  14.4415  14.4837  14.6594  14.6970  14.8871  15.2851
    15.6016  15.8029  16.0121  16.2924  16.3559  17.4104  17.6935  18.1854
    18.4253  18.9692  19.8083  20.0963  20.3717  20.7562  21.3847  22.2095
    23.0258  23.9141  24.0899  25.0947  27.3301  27.9404  28.0333  28.6032
    29.4725  29.7699  30.2140  30.2854  30.6630  30.7302  31.8104  32.2754
    32.8571  33.3653  34.0941  35.2606  36.1329  36.7905  37.7969  38.5022

          k = 0.4722 0.3368 0.0000 ( 10022 PWs)   bands (ev):

   -77.6674 -77.6634 -77.6590 -40.9982 -40.9748 -40.9705 -40.9659 -40.9584
   -40.9296 -40.9212 -40.9094 -40.8855  -4.9323  -4.9154  -4.8926  -4.8450
    -4.8200  -4.8012  -4.7565  -4.7419  -4.7033  -4.6924  -4.6902  -4.6783
    -4.6487  -4.6475  -4.6433   6.9730   7.4591   9.7664  11.7344  13.5050
    13.6553  14.0477  14.4361  14.5394  14.6499  14.6990  14.9037  15.2575
    15.5953  15.7995  16.0404  16.3077  16.3278  17.4059  17.6604  18.2265
    18.4118  19.0036  19.8517  20.2620  20.5118  20.6019  21.1518  22.3434
    22.8616  23.8746  23.9024  25.0781  27.5125  28.1365  28.1750  28.8900
    29.4978  29.7097  30.0795  30.1446  30.5432  30.9317  31.7907  32.1897
    32.8433  33.0563  33.7785  35.1175  36.3780  37.1654  38.2070  38.9116

          k = 0.4861 0.3127 0.0000 ( 10010 PWs)   bands (ev):

   -77.6675 -77.6634 -77.6590 -40.9987 -40.9749 -40.9705 -40.9659 -40.9577
   -40.9301 -40.9209 -40.9098 -40.8851  -4.9319  -4.9122  -4.8969  -4.8456
    -4.8198  -4.8000  -4.7530  -4.7452  -4.7028  -4.6926  -4.6902  -4.6786
    -4.6488  -4.6475  -4.6438   6.9597   7.4489   9.8657  11.6340  13.5017
    13.6506  14.0528  14.4328  14.5814  14.6359  14.7002  14.9154  15.2392
    15.5915  15.7974  16.0608  16.3074  16.3173  17.4037  17.6401  18.2534
    18.4036  19.0225  19.8957  20.4407  20.4852  20.6069  20.9341  22.4545
    22.7517  23.7176  23.8950  25.0685  27.6348  28.2062  28.3827  29.1646
    29.2679  29.8271  29.8279  30.0523  30.5247  31.2091  31.7790  32.1097
    32.7759  32.8350  33.5760  35.0385  36.5403  37.4534  38.5466  39.2421

          k = 0.5000 0.2887 0.0000 ( 10026 PWs)   bands (ev):

   -77.6675 -77.6633 -77.6590 -40.9988 -40.9749 -40.9705 -40.9659 -40.9575
   -40.9303 -40.9208 -40.9100 -40.8850  -4.9317  -4.9106  -4.8989  -4.8458
    -4.8197  -4.7995  -4.7506  -4.7475  -4.7027  -4.6926  -4.6902  -4.6787
    -4.6488  -4.6475  -4.6440   6.9553   7.4455   9.9017  11.5977  13.5005
    13.6490  14.0545  14.4317  14.6057  14.6210  14.7006  14.9197  15.2327
    15.5903  15.7966  16.0684  16.2997  16.3206  17.4031  17.6333  18.2628
    18.4008  19.0285  19.9162  20.4394  20.5625  20.6409  20.7995  22.4996
    22.7127  23.6577  23.8925  25.0653  27.6783  28.2311  28.4823  29.1609
    29.3403  29.6544  29.8532  30.0198  30.5408  31.3390  31.7751  32.0741
    32.6481  32.8322  33.5066  35.0135  36.5975  37.5686  38.6973  39.3824

          k = 0.4583 0.2646 0.0000 ( 10008 PWs)   bands (ev):

   -77.6677 -77.6632 -77.6590 -40.9996 -40.9750 -40.9703 -40.9658 -40.9574
   -40.9312 -40.9201 -40.9091 -40.8849  -4.9318  -4.9099  -4.8982  -4.8455
    -4.8202  -4.7996  -4.7500  -4.7478  -4.7027  -4.6929  -4.6904  -4.6786
    -4.6511  -4.6458  -4.6447   6.8248   7.5970   9.9059  11.6096  13.4908
    13.6412  14.0574  14.4130  14.6061  14.6304  14.7090  14.9166  15.2213
    15.5676  15.8205  16.0745  16.3068  16.3206  17.3994  17.5530  18.2302
    18.4991  19.0740  19.7568  20.2991  20.6464  20.7007  20.9215  22.4734
    22.7186  23.6500  23.7128  25.4346  27.5793  27.8347  28.8900  28.9634
    29.0052  29.7738  30.2050  30.2389  30.3669  31.4014  31.5431  31.7657
    32.8470  33.2377  33.3927  35.2821  36.5222  37.6540  38.5100  39.4806

          k = 0.4167 0.2406 0.0000 (  9988 PWs)   bands (ev):

   -77.6680 -77.6628 -77.6590 -41.0018 -40.9754 -40.9699 -40.9658 -40.9571
   -40.9334 -40.9181 -40.9069 -40.8848  -4.9320  -4.9076  -4.8963  -4.8448
    -4.8217  -4.7998  -4.7487  -4.7487  -4.7025  -4.6938  -4.6911  -4.6785
    -4.6546  -4.6470  -4.6439   6.5986   7.8855   9.9186  11.6451  13.4633
    13.6196  14.0644  14.3649  14.6071  14.6505  14.7334  14.9062  15.1881
    15.5177  15.8737  16.0918  16.3207  16.3262  17.3819  17.3882  18.1505
    18.7227  19.1882  19.4555  20.0721  20.6639  20.9389  21.0827  22.3030
    22.7360  23.4325  23.8783  26.1354  27.3363  27.3543  28.5230  28.5987
    29.3831  30.0155  30.1133  30.6683  30.7346  30.8039  31.1941  31.9498
    33.1214  33.2144  33.9512  35.8975  36.3504  37.8520  38.1732  39.3712

          k = 0.3750 0.2165 0.0000 (  9984 PWs)   bands (ev):

   -77.6685 -77.6623 -77.6590 -41.0051 -40.9760 -40.9694 -40.9658 -40.9567
   -40.9364 -40.9152 -40.9041 -40.8846  -4.9324  -4.9040  -4.8930  -4.8436
    -4.8237  -4.8000  -4.7501  -4.7473  -4.7019  -4.6954  -4.6922  -4.6783
    -4.6586  -4.6506  -4.6423   6.3718   8.2140   9.9406  11.7037  13.4220
    13.5887  14.0725  14.2977  14.6076  14.6703  14.7721  14.8852  15.1358
    15.4604  15.9365  16.1183  16.3208  16.3528  17.1926  17.3686  18.0524
    18.9942  19.1393  19.3140  19.8807  20.6981  21.1237  21.1552  21.9922
    22.7646  23.5458  24.1513  26.8913  26.9029  27.0325  28.0628  28.2151
    29.6421  29.7137  30.4408  30.4984  30.5507  31.1598  31.2727  32.4219
    33.0378  33.4311  34.7303  36.1507  36.6568  37.8108  38.0824  38.7962

          k = 0.3333 0.1925 0.0000 (  9990 PWs)   bands (ev):

   -77.6691 -77.6618 -77.6590 -41.0090 -40.9766 -40.9688 -40.9658 -40.9563
   -40.9397 -40.9116 -40.9012 -40.8843  -4.9331  -4.8990  -4.8884  -4.8420
    -4.8258  -4.8002  -4.7520  -4.7467  -4.7003  -4.6976  -4.6941  -4.6781
    -4.6632  -4.6553  -4.6409   6.1617   8.5609   9.9739  11.7841  13.3721
    13.5530  14.0787  14.2166  14.6055  14.6853  14.8220  14.8491  15.0679
    15.4032  16.0007  16.1507  16.3210  16.3796  17.0116  17.3405  17.9537
    18.8468  19.2774  19.3182  19.8509  20.7581  20.9110  21.3246  21.8336
    22.8035  23.8698  24.5209  26.4508  26.7181  27.4212  27.8441  27.8698
    29.2341  29.4077  29.9320  30.7756  30.9629  31.6817  31.7622  32.9270
    32.9768  33.7166  35.5288  35.9606  37.3984  37.4350  37.9306  38.1217

          k = 0.2917 0.1684 0.0000 ( 10010 PWs)   bands (ev):

   -77.6697 -77.6612 -77.6590 -41.0131 -40.9772 -40.9682 -40.9658 -40.9560
   -40.9428 -40.9077 -40.8984 -40.8839  -4.9340  -4.8929  -4.8829  -4.8401
    -4.8277  -4.8002  -4.7543  -4.7476  -4.7007  -4.6975  -4.6967  -4.6778
    -4.6679  -4.6608  -4.6396   5.9733   8.9128  10.0237  11.8848  13.3176
    13.5162  14.0818  14.1244  14.5971  14.6935  14.7952  14.8791  14.9885
    15.3492  16.0628  16.1855  16.3212  16.3992  16.8482  17.3048  17.8622
    18.5971  19.1414  19.5457  20.0190  20.5485  20.8602  21.4481  21.8503
    22.8514  24.3036  24.9662  26.0332  26.4203  27.1065  27.4960  28.3084
    28.6521  29.1311  29.5755  31.3234  31.4570  32.1079  32.2232  33.0770
    33.4482  34.0147  35.7547  36.3663  36.7991  36.9502  37.5513  38.3681

          k = 0.2500 0.1443 0.0000 ( 10012 PWs)   bands (ev):

   -77.6702 -77.6607 -77.6590 -41.0172 -40.9777 -40.9676 -40.9658 -40.9557
   -40.9458 -40.9038 -40.8960 -40.8833  -4.9350  -4.8858  -4.8766  -4.8379
    -4.8290  -4.7999  -4.7568  -4.7499  -4.7046  -4.7006  -4.6938  -4.6775
    -4.6724  -4.6664  -4.6385   5.8083   9.2491  10.1042  12.0033  13.2602
    13.4812  14.0248  14.0817  14.5755  14.6818  14.7348  14.9043  14.9390
    15.3003  16.1204  16.2187  16.3216  16.4048  16.7063  17.2662  17.7783
    18.3996  18.8897  19.7716  20.1170  20.3653  21.0269  21.5347  21.9212
    22.9064  24.7955  25.4503  25.6361  26.1678  26.7305  27.1766  28.0781
    28.1103  28.8906  29.9934  31.9063  31.9636  32.2452  32.7776  33.3779
    33.9565  34.3059  35.5986  36.0518  36.1429  37.1491  37.2197  38.5905

          k = 0.2083 0.1203 0.0000 ( 10008 PWs)   bands (ev):

   -77.6707 -77.6602 -77.6590 -41.0211 -40.9782 -40.9671 -40.9658 -40.9555
   -40.9485 -40.9001 -40.8940 -40.8825  -4.9361  -4.8781  -4.8700  -4.8355
    -4.8296  -4.7990  -4.7594  -4.7534  -4.7095  -4.7057  -4.6896  -4.6773
    -4.6762  -4.6716  -4.6375   5.6678   9.5300  10.2476  12.1359  13.1969
    13.4495  13.9243  14.0790  14.5284  14.6006  14.7189  14.8282  14.9975
    15.2574  16.1718  16.2468  16.3221  16.3933  16.5875  17.2318  17.6959
    18.2547  18.6162  19.8954  19.9359  20.6210  21.2737  21.5942  22.0082
    22.9657  25.2541  25.3006  25.7497  26.1682  26.3888  26.8908  27.5460
    27.6014  28.6929  30.7801  32.2818  32.4641  32.4931  33.3373  33.7533
    34.3255  34.4112  35.4288  35.4654  35.6170  36.9940  37.7884  38.4653

          k = 0.1667 0.0962 0.0000 ( 10010 PWs)   bands (ev):

   -77.6711 -77.6598 -77.6590 -41.0244 -40.9786 -40.9667 -40.9658 -40.9553
   -40.9508 -40.8968 -40.8926 -40.8816  -4.9372  -4.8702  -4.8637  -4.8332
    -4.8297  -4.7974  -4.7620  -4.7574  -4.7152  -4.7120  -4.6855  -4.6791
    -4.6771  -4.6761  -4.6366   5.5523   9.7134  10.4865  12.2769  13.1187
    13.4225  13.8341  14.0747  14.4448  14.4841  14.7181  14.7748  15.0506
    15.2214  16.2154  16.2673  16.3230  16.3676  16.4922  17.2078  17.6035
    18.1549  18.3689  19.7197  20.0408  20.9251  21.5950  21.6341  22.1031
    23.0256  24.8783  25.6227  25.7234  26.1090  26.6394  26.6439  27.0761
    27.1473  28.5492  31.5600  32.3657  32.9117  33.0630  33.8910  33.9198
    34.1221  34.1723  35.3639  35.4347  35.7332  36.8387  38.0787  38.1081

          k = 0.1250 0.0722 0.0000 ( 10000 PWs)   bands (ev):

   -77.6714 -77.6595 -77.6590 -41.0271 -40.9790 -40.9664 -40.9658 -40.9552
   -40.9527 -40.8942 -40.8916 -40.8807  -4.9382  -4.8627  -4.8582  -4.8311
    -4.8293  -4.7950  -4.7644  -4.7614  -4.7213  -4.7189  -4.6818  -4.6812
    -4.6795  -4.6769  -4.6358   5.4622   9.8115  10.7947  12.4177  13.0130
    13.4009  13.7689  14.0699  14.3330  14.3557  14.7182  14.7445  15.0950
    15.1929  16.2497  16.2789  16.3245  16.3357  16.4200  17.1954  17.4944
    18.0899  18.1898  19.6025  20.1031  21.2196  21.6600  21.9706  22.2043
    23.0814  24.4974  25.4718  25.7493  25.9784  26.4416  26.6882  27.0240
    27.1336  28.4847  31.9604  32.8276  33.0317  33.3083  33.5871  33.8431
    34.4194  34.4574  35.3026  35.8211  36.1616  36.7604  37.7547  38.1505

          k = 0.0833 0.0481 0.0000 ( 10018 PWs)   bands (ev):

   -77.6716 -77.6592 -77.6590 -41.0291 -40.9792 -40.9661 -40.9658 -40.9551
   -40.9540 -40.8922 -40.8910 -40.8800  -4.9389  -4.8564  -4.8539  -4.8294
    -4.8286  -4.7921  -4.7663  -4.7648  -4.7268  -4.7254  -4.6826  -4.6819
    -4.6790  -4.6767  -4.6353   5.3977   9.8629  11.1102  12.5443  12.8764
    13.3852  13.7389  14.0655  14.2178  14.2314  14.7183  14.7286  15.1282
    15.1722  16.2737  16.2825  16.3068  16.3268  16.3698  17.1912  17.3850
    18.0501  18.0859  19.5286  20.1383  21.4677  21.6760  22.3092  22.3804
    23.1274  24.1017  25.3572  25.5456  25.7707  26.2904  26.4001  27.2968
    27.5047  28.5478  32.0179  32.5862  32.7205  33.5831  34.0171  34.0897
    34.7303  34.8871  35.2926  36.1616  36.6264  36.7810  37.4129  38.0059

          k = 0.0417 0.0241 0.0000 ( 10023 PWs)   bands (ev):

   -77.6718 -77.6591 -77.6589 -41.0304 -40.9794 -40.9660 -40.9658 -40.9551
   -40.9548 -40.8910 -40.8907 -40.8795  -4.9394  -4.8520  -4.8513  -4.8282
    -4.8280  -4.7895  -4.7676  -4.7672  -4.7307  -4.7303  -4.6834  -4.6832
    -4.6772  -4.6766  -4.6350   5.3590   9.8886  11.3666  12.6365  12.7371
    13.3757  13.7382  14.0626  14.1291  14.1342  14.7183  14.7207  15.1486
    15.1597  16.2815  16.2870  16.2873  16.3295  16.3404  17.1908  17.3060
    18.0287  18.0363  19.4878  20.1561  21.6312  21.6846  22.4014  22.8067
    23.1579  23.6894  25.2869  25.3489  25.6037  26.1965  26.2239  27.5980
    27.6799  28.7268  32.0005  32.1441  32.3150  34.2305  34.2913  34.3697
    34.9721  35.2304  35.3311  36.3620  36.8337  36.9323  37.1769  37.6919

          k = 0.0000 0.0000 0.0000 ( 10021 PWs)   bands (ev):

   -77.6718 -77.6591 -77.6589 -41.0308 -40.9794 -40.9659 -40.9658 -40.9551
   -40.9551 -40.8906 -40.8905 -40.8793  -4.9396  -4.8505  -4.8504  -4.8278
    -4.8278  -4.7885  -4.7680  -4.7680  -4.7322  -4.7322  -4.6837  -4.6837
    -4.6766  -4.6766  -4.6348   5.3461   9.8965  11.4729  12.6710  12.6711
    13.3725  13.7438  14.0615  14.0951  14.0952  14.7183  14.7183  15.1555
    15.1555  16.2804  16.2805  16.2910  16.3307  16.3308  17.1910  17.2778
    18.0219  18.0220  19.4748  20.1616  21.6873  21.6874  22.4410  23.1685
    23.1686  23.3329  25.2632  25.2633  25.5513  26.1646  26.1648  27.7213
    27.7213  28.8306  31.9645  31.9646  32.1901  34.3810  34.4821  34.4821
    35.1209  35.3613  35.3613  36.4478  36.8106  36.8106  37.3585  37.6126

          k = 0.0000 0.0000 0.0516 ( 10021 PWs)   bands (ev):

   -77.6718 -77.6591 -77.6589 -41.0308 -40.9795 -40.9659 -40.9658 -40.9551
   -40.9551 -40.8906 -40.8905 -40.8793  -4.9393  -4.8504  -4.8504  -4.8280
    -4.8280  -4.7881  -4.7688  -4.7688  -4.7319  -4.7319  -4.6832  -4.6832
    -4.6766  -4.6766  -4.6347   5.3608   9.8841  11.4625  12.6872  12.6873
    13.3955  13.5879  14.0993  14.0994  14.1731  14.7182  14.7182  15.1567
    15.1568  16.2805  16.2806  16.2902  16.3293  16.3294  17.1910  17.2812
    17.9991  17.9992  19.5524  20.0988  21.6391  21.6392  22.1177  23.0302
    23.0303  23.6802  25.4447  25.4448  25.6589  26.2108  26.2109  27.7767
    27.7767  28.8488  31.9635  31.9636  32.1909  34.3613  34.4263  34.4263
    35.1251  35.3329  35.3329  36.3211  36.8242  36.8242  37.2922  37.4179

          k = 0.0000 0.0000 0.1033 ( 10003 PWs)   bands (ev):

   -77.6718 -77.6591 -77.6589 -41.0308 -40.9795 -40.9659 -40.9658 -40.9551
   -40.9551 -40.8906 -40.8905 -40.8793  -4.9384  -4.8502  -4.8502  -4.8287
    -4.8287  -4.7870  -4.7711  -4.7710  -4.7311  -4.7311  -4.6819  -4.6819
    -4.6767  -4.6766  -4.6344   5.4049   9.8449  11.4329  12.7358  12.7359
    13.3137  13.4624  14.1114  14.1115  14.3254  14.7180  14.7180  15.1606
    15.1607  16.2808  16.2809  16.2879  16.3252  16.3253  17.1911  17.2859
    17.9304  17.9304  19.7522  19.9564  21.5036  21.5037  21.5783  22.7141
    22.7142  24.2914  25.8904  25.8905  25.9650  26.3398  26.3399  27.9432
    27.9432  28.9035  31.9607  31.9607  32.1927  34.2558  34.2558  34.3038
    35.1375  35.2534  35.2534  35.9942  36.8619  36.8619  37.0130  37.1306

          k = 0.0000 0.0000 0.1549 (  9991 PWs)   bands (ev):

   -77.6718 -77.6591 -77.6589 -41.0307 -40.9795 -40.9659 -40.9658 -40.9551
   -40.9551 -40.8906 -40.8905 -40.8793  -4.9371  -4.8499  -4.8499  -4.8297
    -4.8297  -4.7852  -4.7745  -4.7745  -4.7299  -4.7299  -4.6799  -4.6799
    -4.6767  -4.6767  -4.6339   5.4782   9.7733  11.3887  12.8161  12.8162
    13.0218  13.5683  14.1304  14.1305  14.4457  14.7175  14.7175  15.1675
    15.1676  16.2812  16.2813  16.2842  16.3187  16.3188  17.1911  17.2805
    17.8147  17.8148  19.6329  20.2019  21.0260  21.3025  21.3027  22.3504
    22.3505  24.9626  26.4321  26.4700  26.4701  26.5307  26.5308  28.2197
    28.2198  28.9942  31.9566  31.9566  32.1938  33.9707  33.9707  34.2118
    35.1360  35.1360  35.1575  35.5578  36.3961  36.9170  36.9170  36.9306

          k = 0.0000 0.0000 0.2066 (  9960 PWs)   bands (ev):

   -77.6718 -77.6591 -77.6589 -41.0307 -40.9796 -40.9659 -40.9658 -40.9551
   -40.9551 -40.8906 -40.8905 -40.8793  -4.9353  -4.8495  -4.8495  -4.8310
    -4.8310  -4.7828  -4.7788  -4.7788  -4.7283  -4.7282  -4.6775  -4.6775
    -4.6769  -4.6769  -4.6333   5.5804   9.6615  11.3356  12.7468  12.9274
    12.9275  13.7066  14.1549  14.1550  14.5338  14.7167  14.7167  15.1780
    15.1781  16.2794  16.2815  16.2816  16.3103  16.3104  17.1912  17.2545
    17.6521  17.6522  19.3545  20.4911  20.6978  21.0614  21.0615  22.0028
    22.0029  25.6621  26.7640  26.7640  27.0201  27.1185  27.1186  28.6001
    28.6002  29.1204  31.9524  31.9524  32.1896  33.5876  33.5876  34.0865
    34.9950  34.9950  35.0723  35.1842  35.5789  36.8415  36.8415  36.9835

          k = 0.0000 0.0000 0.2582 (  9954 PWs)   bands (ev):

   -77.6718 -77.6591 -77.6589 -41.0307 -40.9797 -40.9659 -40.9658 -40.9551
   -40.9551 -40.8906 -40.8905 -40.8793  -4.9332  -4.8490  -4.8490  -4.8325
    -4.8325  -4.7836  -4.7836  -4.7801  -4.7263  -4.7262  -4.6771  -4.6771
    -4.6750  -4.6750  -4.6326   5.7107   9.5022  11.2789  12.5120  13.0682
    13.0683  13.8702  14.1829  14.1830  14.5977  14.7153  14.7153  15.1925
    15.1926  16.2738  16.2814  16.2815  16.3008  16.3009  17.1912  17.2009
    17.4448  17.4449  19.0749  19.9826  20.8028  20.8029  21.2992  21.6972
    21.6973  26.3788  27.0284  27.0285  27.6968  27.8047  27.8048  29.0722
    29.0723  29.2812  31.9499  31.9499  32.1677  33.1356  33.1357  33.9075
    34.5694  34.7321  34.8422  34.8422  35.2165  36.8480  36.8480  37.0570

          k = 0.0000 0.0000 0.3099 (  9972 PWs)   bands (ev):

   -77.6718 -77.6591 -77.6589 -41.0306 -40.9798 -40.9659 -40.9658 -40.9551
   -40.9551 -40.8906 -40.8906 -40.8793  -4.9310  -4.8484  -4.8484  -4.8341
    -4.8341  -4.7885  -4.7885  -4.7772  -4.7240  -4.7240  -4.6775  -4.6775
    -4.6726  -4.6726  -4.6318   5.8684   9.2932  11.2230  12.3303  13.2367
    13.2368  14.0523  14.2120  14.2120  14.6450  14.7130  14.7130  15.2113
    15.2114  16.2678  16.2802  16.2803  16.2907  16.2908  17.1164  17.1913
    17.1991  17.1992  18.8259  19.5059  20.5449  20.5450  21.4429  21.4430
    21.9803  27.1037  27.3204  27.3204  28.4370  28.5085  28.5086  29.4757
    29.6210  29.6211  31.9526  31.9526  32.0871  32.6432  32.6432  33.5244
    34.0658  34.1097  34.6848  34.6848  35.2529  36.9275  36.9275  37.0654

          k = 0.0000 0.0000 0.3615 (  9936 PWs)   bands (ev):

   -77.6718 -77.6591 -77.6589 -41.0306 -40.9798 -40.9659 -40.9658 -40.9551
   -40.9551 -40.8906 -40.8906 -40.8793  -4.9288  -4.8479  -4.8479  -4.8357
    -4.8357  -4.7933  -4.7932  -4.7743  -4.7217  -4.7216  -4.6780  -4.6780
    -4.6703  -4.6703  -4.6310   6.0521   9.0395  11.1714  12.2034  13.4299
    13.4300  14.2399  14.2400  14.2454  14.6816  14.7090  14.7090  15.2338
    15.2339  16.2618  16.2763  16.2764  16.2809  16.2810  16.9264  16.9265
    17.0029  17.1913  18.6243  19.0666  20.3023  20.3024  21.2407  21.2408
    22.7227  27.6395  27.6395  27.8258  29.2101  29.2102  29.2168  29.7025
    30.2312  30.2313  31.8065  31.9668  31.9668  32.1314  32.1314  32.9722
    33.5707  33.8564  34.5254  34.5254  35.2915  36.9104  37.0584  37.0584

          k = 0.0000 0.0000 0.4132 (  9966 PWs)   bands (ev):

   -77.6718 -77.6591 -77.6589 -41.0305 -40.9799 -40.9659 -40.9658 -40.9552
   -40.9551 -40.8906 -40.8906 -40.8793  -4.9268  -4.8474  -4.8474  -4.8372
    -4.8372  -4.7975  -4.7975  -4.7715  -4.7193  -4.7193  -4.6787  -4.6786
    -4.6684  -4.6684  -4.6302   6.2596   8.7533  11.1264  12.1238  13.6435
    13.6436  14.2648  14.2649  14.4404  14.7020  14.7021  14.7111  15.2586
    15.2587  16.2563  16.2631  16.2632  16.2720  16.2721  16.6467  16.6469
    16.8709  17.1914  18.4748  18.6721  20.0864  20.0866  21.0864  21.0865
    23.5116  27.9859  27.9859  28.5283  29.8821  29.8822  29.9600  29.9822
    30.8882  30.8883  31.1960  31.6147  31.6147  32.0055  32.0056  32.7058
    33.0903  33.7059  34.3614  34.3614  35.3309  36.7373  37.2063  37.2063

          k = 0.0000 0.0000 0.4648 (  9996 PWs)   bands (ev):

   -77.6718 -77.6591 -77.6589 -41.0305 -40.9800 -40.9659 -40.9658 -40.9552
   -40.9551 -40.8906 -40.8906 -40.8793  -4.9250  -4.8469  -4.8469  -4.8385
    -4.8384  -4.8011  -4.8011  -4.7692  -4.7172  -4.7172  -4.6793  -4.6793
    -4.6668  -4.6668  -4.6296   6.4867   8.4503  11.0899  12.0795  13.8704
    13.8704  14.2852  14.2852  14.6253  14.6893  14.6893  14.7354  15.2832
    15.2833  16.2009  16.2010  16.2515  16.2644  16.2645  16.4181  16.4182
    16.7381  17.1914  18.3333  18.3720  19.9072  19.9073  20.9743  20.9744
    24.3316  28.3595  28.3595  29.1838  30.0826  30.2454  30.4774  30.4774
    31.0616  31.0994  31.0994  31.5792  31.5793  32.0956  32.0956  32.6298
    32.6369  33.5884  34.1850  34.1851  35.3704  36.5072  36.9557  36.9558

          k = 0.0000 0.0000 0.5164 (  9966 PWs)   bands (ev):

   -77.6718 -77.6591 -77.6589 -41.0305 -40.9800 -40.9659 -40.9657 -40.9552
   -40.9552 -40.8906 -40.8906 -40.8793  -4.9237  -4.8465  -4.8465  -4.8394
    -4.8394  -4.8038  -4.8038  -4.7674  -4.7155  -4.7155  -4.6799  -4.6799
    -4.6656  -4.6656  -4.6291   6.7244   8.1506  11.0631  12.0582  14.0982
    14.0982  14.3000  14.3001  14.6645  14.6645  14.7545  14.7831  15.3045
    15.3045  16.0154  16.0155  16.2479  16.2587  16.2588  16.3402  16.3403
    16.6248  17.1915  18.0660  18.3070  19.7726  19.7727  20.8987  20.8988
    25.1597  28.7591  28.7591  29.2747  29.7459  30.5537  30.5978  30.5978
    30.9210  30.9210  31.7736  32.1957  32.2722  32.2723  32.2785  32.2785
    32.6322  33.4966  33.9873  33.9873  35.4120  36.1447  36.1690  36.1691

          k = 0.0000 0.0000 0.5681 (  9960 PWs)   bands (ev):

   -77.6718 -77.6591 -77.6589 -41.0305 -40.9801 -40.9659 -40.9657 -40.9552
   -40.9552 -40.8906 -40.8906 -40.8793  -4.9228  -4.8463  -4.8463  -4.8400
    -4.8400  -4.8054  -4.8054  -4.7662  -4.7144  -4.7144  -4.6803  -4.6803
    -4.6649  -4.6649  -4.6288   6.9458   7.8887  11.0467  12.0497  14.3036
    14.3036  14.3091  14.3092  14.6168  14.6169  14.7670  14.8923  15.3189
    15.3190  15.8345  15.8346  16.2456  16.2552  16.2553  16.3251  16.3252
    16.5489  17.1915  17.8914  18.2714  19.6891  19.6892  20.8552  20.8553
    25.9307  28.4704  29.1821  29.1822  30.1121  30.1121  30.1428  30.8670
    31.1606  31.1607  31.8066  32.3980  32.5402  32.5402  32.6831  32.8995
    32.8996  33.4294  33.7792  33.7793  35.4618  35.4651  35.4652  35.6763

          k = 0.0000 0.0000 0.6197 (  9948 PWs)   bands (ev):

   -77.6718 -77.6591 -77.6589 -41.0304 -40.9801 -40.9659 -40.9657 -40.9552
   -40.9552 -40.8906 -40.8906 -40.8793  -4.9225  -4.8462  -4.8462  -4.8402
    -4.8402  -4.8060  -4.8060  -4.7659  -4.7140  -4.7140  -4.6805  -4.6805
    -4.6647  -4.6647  -4.6287   7.0571   7.7635  11.0411  12.0476  14.3121
    14.3122  14.4183  14.4183  14.5643  14.5645  14.7715  14.9317  15.3241
    15.3241  15.7621  15.7623  16.2448  16.2540  16.2541  16.3220  16.3221
    16.5221  17.1915  17.8302  18.2601  19.6608  19.6609  20.8411  20.8411
    26.3435  28.0438  29.5661  29.5661  29.7071  29.7071  30.2892  31.0618
    31.2296  31.2297  31.5865  32.5540  32.6904  32.6904  32.8421  33.2092
    33.2093  33.3950  33.6653  33.6654  35.1289  35.1290  35.4269  35.5004

     Writing output data file ./out/cosn.save/

     init_run     :      0.04s CPU      0.07s WALL (       1 calls)
     electrons    :     95.92s CPU    102.51s WALL (       1 calls)

     Called by init_run:
     wfcinit      :      0.00s CPU      0.00s WALL (       1 calls)
     potinit      :      0.01s CPU      0.01s WALL (       1 calls)
     hinit0       :      0.02s CPU      0.03s WALL (       1 calls)

     Called by electrons:
     c_bands      :     95.92s CPU    102.49s WALL (       1 calls)
     v_of_rho     :      0.01s CPU      0.01s WALL (       1 calls)

     Called by c_bands:
     init_us_2    :      0.01s CPU      0.01s WALL (      98 calls)
     cegterg      :     92.73s CPU     98.95s WALL (     115 calls)

     Called by *egterg:
     cdiaghg      :     36.32s CPU     38.24s WALL (    1946 calls)
     h_psi        :     23.47s CPU     25.56s WALL (    2061 calls)
     g_psi        :      0.18s CPU      0.18s WALL (    1848 calls)

     Called by h_psi:
     h_psi:calbec :      4.46s CPU      4.97s WALL (    2061 calls)
     vloc_psi     :     14.87s CPU     16.26s WALL (    2061 calls)
     add_vuspsi   :      4.08s CPU      4.28s WALL (    2061 calls)

     General routines
     calbec       :      4.46s CPU      4.97s WALL (    2061 calls)
     fft          :      0.00s CPU      0.00s WALL (      18 calls)
     fftw         :     13.54s CPU     14.84s WALL (  208198 calls)
     davcio       :      0.05s CPU      0.05s WALL (     196 calls)

     Parallel routines
     fft_scatt_xy :      1.46s CPU      1.55s WALL (  208216 calls)
     fft_scatt_yz :      8.27s CPU      9.16s WALL (  208216 calls)

     PWSCF        :   1m37.93s CPU   1m46.61s WALL


   This run was terminated on:  16:23:26  15Jun2026            

=------------------------------------------------------------------------------=
   JOB DONE.
=------------------------------------------------------------------------------=
