
     Program PWSCF v.6.7MaX starts on 15Jun2026 at 16:23:53 

     This program is part of the open-source Quantum ESPRESSO suite
     for quantum simulation of materials; please cite
         "P. Giannozzi et al., J. Phys.:Condens. Matter 21 395502 (2009);
         "P. Giannozzi et al., J. Phys.:Condens. Matter 29 465901 (2017);
          URL http://www.quantum-espresso.org", 
     in publications or presentations arising from this work. More details at
     http://www.quantum-espresso.org/quote

     Parallel version (MPI), running on    32 processors

     MPI processes distributed on     1 nodes
     R & G space division:  proc/nbgrp/npool/nimage =      32
     Reading input from scf.in

     Current dimensions of program PWSCF are:
     Max number of different atomic species (ntypx) = 10
     Max number of k-points (npk) =  40000
     Max angular momentum in pseudopotentials (lmaxx) =  3
     Message from routine read_pp_mesh:
     mesh size missing, using the one in header
     Message from routine read_pp_mesh:
     mesh size missing, using the one in header

     Subspace diagonalization in iterative solution of the eigenvalue problem:
     one sub-group per band group will be used
     scalapack distributed-memory algorithm (size of sub-group:  5*  5 procs)


     Parallelization info
     --------------------
     sticks:   dense  smooth     PW     G-vecs:    dense   smooth      PW
     Min          77      77     21                 2501     2501     371
     Max          78      78     22                 2504     2504     376
     Sum        2479    2479    685                80083    80083   11941



     bravais-lattice index     =            4
     lattice parameter (alat)  =       9.9760  a.u.
     unit-cell volume          =     693.6907 (a.u.)^3
     number of atoms/cell      =            6
     number of atomic types    =            2
     number of electrons       =        93.40
     number of Kohn-Sham states=           56
     kinetic-energy cutoff     =      90.0000  Ry
     charge density cutoff     =     360.0000  Ry
     scf convergence threshold =      1.0E-10
     mixing beta               =       0.4000
     number of iterations used =            8  plain     mixing
     Exchange-correlation= PBE
                           (   1   4   3   4   0   0   0)

     celldm(1)=   9.976000  celldm(2)=   0.000000  celldm(3)=   0.806800
     celldm(4)=   0.000000  celldm(5)=   0.000000  celldm(6)=   0.000000

     crystal axes: (cart. coord. in units of alat)
               a(1) = (   1.000000   0.000000   0.000000 )  
               a(2) = (  -0.500000   0.866025   0.000000 )  
               a(3) = (   0.000000   0.000000   0.806800 )  

     reciprocal axes: (cart. coord. in units 2 pi/alat)
               b(1) = (  1.000000  0.577350 -0.000000 )  
               b(2) = (  0.000000  1.154701  0.000000 )  
               b(3) = (  0.000000 -0.000000  1.239465 )  


     PseudoPot. # 1 for Co read from file:
     ./pseudo/Co_ONCV_PBE_sr.upf
     MD5 check sum: 04640e31e65e5bce9f0417487be359f7
     Pseudo is Norm-conserving, Zval = 17.0
     Generated using ONCVPSP code by D. R. Hamann
     Using radial grid of  602 points,  6 beta functions with: 
                l(1) =   0
                l(2) =   0
                l(3) =   1
                l(4) =   1
                l(5) =   2
                l(6) =   2

     PseudoPot. # 2 for Sn read from file:
     ./pseudo/Sn_ONCV_PBE_sr.upf
     MD5 check sum: 6680f7ee4d83b53e0fcd4167fcb72813
     Pseudo is Norm-conserving, Zval = 14.0
     Generated using ONCVPSP code by D. R. Hamann
     Using radial grid of  602 points,  6 beta functions with: 
                l(1) =   0
                l(2) =   0
                l(3) =   1
                l(4) =   1
                l(5) =   2
                l(6) =   2

     atomic species   valence    mass     pseudopotential
        Co            17.00    58.93300     Co( 1.00)
        Sn            14.00   118.71000     Sn( 1.00)

     Starting magnetic structure 
     atomic species   magnetization
        Co           0.300
        Sn           0.000

     24 Sym. Ops., with inversion, found



   Cartesian axes

     site n.     atom                  positions (alat units)
         1           Co  tau(   1) = (   0.5000000   0.0000000   0.0000000  )
         2           Co  tau(   2) = (  -0.2500000   0.4330127   0.0000000  )
         3           Co  tau(   3) = (   0.2500000   0.4330127   0.0000000  )
         4           Sn  tau(   4) = (   0.0000000   0.0000000   0.0000000  )
         5           Sn  tau(   5) = (  -0.0000005   0.5773506   0.4034000  )
         6           Sn  tau(   6) = (   0.5000005   0.2886748   0.4034000  )

     number of k points=   133  Methfessel-Paxton smearing, width (Ry)=  0.0200

     Number of k-points >= 100: set verbosity='high' to print them.

     Dense  grid:    80083 G-vectors     FFT dimensions: (  64,  64,  50)

     Estimated max dynamical RAM per process >      78.68 MB

     Estimated total dynamical RAM >       2.46 GB
     Generating pointlists ...
     new r_m :   0.2046 (alat units)  2.0413 (a.u.) for type    1
     new r_m :   0.2046 (alat units)  2.0413 (a.u.) for type    2

     Initial potential from superposition of free atoms

     starting charge   92.62773, renormalised to   93.40000
     Starting wfcs are random

     total cpu time spent up to now is        5.4 secs

     Self-consistent Calculation

     iteration #  1     ecut=    90.00 Ry     beta= 0.40
     Davidson diagonalization with overlap
     ethr =  1.00E-02,  avg # of iterations = 11.0

     total cpu time spent up to now is       81.9 secs

     total energy              =   -1174.13997976 Ry
     estimated scf accuracy    <       1.14524496 Ry

     total magnetization       =     4.97 Bohr mag/cell
     absolute magnetization    =     5.96 Bohr mag/cell

     iteration #  2     ecut=    90.00 Ry     beta= 0.40
     Davidson diagonalization with overlap
     ethr =  1.23E-03,  avg # of iterations =  1.8

     total cpu time spent up to now is       97.7 secs

     total energy              =   -1174.32852554 Ry
     estimated scf accuracy    <       0.37087154 Ry

     total magnetization       =     5.16 Bohr mag/cell
     absolute magnetization    =     6.07 Bohr mag/cell

     iteration #  3     ecut=    90.00 Ry     beta= 0.40
     Davidson diagonalization with overlap
     ethr =  3.97E-04,  avg # of iterations =  2.1

     total cpu time spent up to now is      114.8 secs

     total energy              =   -1174.38975052 Ry
     estimated scf accuracy    <       0.82931659 Ry

     total magnetization       =     2.95 Bohr mag/cell
     absolute magnetization    =     4.05 Bohr mag/cell

     iteration #  4     ecut=    90.00 Ry     beta= 0.40
     Davidson diagonalization with overlap
     ethr =  3.97E-04,  avg # of iterations =  1.7

     total cpu time spent up to now is      131.5 secs

     total energy              =   -1174.47851461 Ry
     estimated scf accuracy    <       0.04271194 Ry

     total magnetization       =     3.49 Bohr mag/cell
     absolute magnetization    =     4.37 Bohr mag/cell

     iteration #  5     ecut=    90.00 Ry     beta= 0.40
     Davidson diagonalization with overlap
     ethr =  4.57E-05,  avg # of iterations =  2.7

     total cpu time spent up to now is      149.6 secs

     total energy              =   -1174.50376926 Ry
     estimated scf accuracy    <       0.01116711 Ry

     total magnetization       =     2.22 Bohr mag/cell
     absolute magnetization    =     3.07 Bohr mag/cell

     iteration #  6     ecut=    90.00 Ry     beta= 0.40
     Davidson diagonalization with overlap
     ethr =  1.20E-05,  avg # of iterations =  3.4

     total cpu time spent up to now is      168.2 secs

     total energy              =   -1174.50694208 Ry
     estimated scf accuracy    <       0.00795781 Ry

     total magnetization       =     1.74 Bohr mag/cell
     absolute magnetization    =     2.51 Bohr mag/cell

     iteration #  7     ecut=    90.00 Ry     beta= 0.40
     Davidson diagonalization with overlap
     ethr =  8.52E-06,  avg # of iterations =  3.1

     total cpu time spent up to now is      189.3 secs

     total energy              =   -1174.52470802 Ry
     estimated scf accuracy    <       0.00561807 Ry

     total magnetization       =     0.48 Bohr mag/cell
     absolute magnetization    =     0.98 Bohr mag/cell

     iteration #  8     ecut=    90.00 Ry     beta= 0.40
     Davidson diagonalization with overlap
     ethr =  6.02E-06,  avg # of iterations =  1.0

     total cpu time spent up to now is      203.7 secs

     total energy              =   -1174.52550178 Ry
     estimated scf accuracy    <       0.00528067 Ry

     total magnetization       =     0.43 Bohr mag/cell
     absolute magnetization    =     0.90 Bohr mag/cell

     iteration #  9     ecut=    90.00 Ry     beta= 0.40
     Davidson diagonalization with overlap
     ethr =  5.65E-06,  avg # of iterations =  2.9

     total cpu time spent up to now is      224.4 secs

     total energy              =   -1174.53077018 Ry
     estimated scf accuracy    <       0.00069750 Ry

     total magnetization       =     0.02 Bohr mag/cell
     absolute magnetization    =     0.12 Bohr mag/cell

     iteration # 10     ecut=    90.00 Ry     beta= 0.40
     Davidson diagonalization with overlap
     ethr =  7.47E-07,  avg # of iterations =  2.5

     total cpu time spent up to now is      242.9 secs

     total energy              =   -1174.53138677 Ry
     estimated scf accuracy    <       0.00058501 Ry

     total magnetization       =     0.12 Bohr mag/cell
     absolute magnetization    =     0.26 Bohr mag/cell

     iteration # 11     ecut=    90.00 Ry     beta= 0.40
     Davidson diagonalization with overlap
     ethr =  6.26E-07,  avg # of iterations =  2.1

     total cpu time spent up to now is      261.2 secs

     total energy              =   -1174.53170700 Ry
     estimated scf accuracy    <       0.00004274 Ry

     total magnetization       =     0.03 Bohr mag/cell
     absolute magnetization    =     0.07 Bohr mag/cell

     iteration # 12     ecut=    90.00 Ry     beta= 0.40
     Davidson diagonalization with overlap
     ethr =  4.58E-08,  avg # of iterations =  3.7

     total cpu time spent up to now is      284.3 secs

     total energy              =   -1174.53166073 Ry
     estimated scf accuracy    <       0.00006592 Ry

     total magnetization       =    -0.02 Bohr mag/cell
     absolute magnetization    =     0.03 Bohr mag/cell

     iteration # 13     ecut=    90.00 Ry     beta= 0.40
     Davidson diagonalization with overlap
     ethr =  4.58E-08,  avg # of iterations =  3.1

     total cpu time spent up to now is      306.1 secs

     total energy              =   -1174.53177853 Ry
     estimated scf accuracy    <       0.00017307 Ry

     total magnetization       =     0.03 Bohr mag/cell
     absolute magnetization    =     0.07 Bohr mag/cell

     iteration # 14     ecut=    90.00 Ry     beta= 0.40
     Davidson diagonalization with overlap
     ethr =  4.58E-08,  avg # of iterations =  2.4

     total cpu time spent up to now is      334.0 secs

     total energy              =   -1174.53181915 Ry
     estimated scf accuracy    <       0.00000280 Ry

     total magnetization       =     0.01 Bohr mag/cell
     absolute magnetization    =     0.02 Bohr mag/cell

     iteration # 15     ecut=    90.00 Ry     beta= 0.40
     Davidson diagonalization with overlap
     ethr =  3.00E-09,  avg # of iterations =  2.3

     total cpu time spent up to now is      351.9 secs

     total energy              =   -1174.53181855 Ry
     estimated scf accuracy    <       0.00000116 Ry

     total magnetization       =     0.01 Bohr mag/cell
     absolute magnetization    =     0.01 Bohr mag/cell

     iteration # 16     ecut=    90.00 Ry     beta= 0.40
     Davidson diagonalization with overlap
     ethr =  1.24E-09,  avg # of iterations =  3.2

     total cpu time spent up to now is      374.6 secs

     total energy              =   -1174.53182087 Ry
     estimated scf accuracy    <       0.00000022 Ry

     total magnetization       =    -0.00 Bohr mag/cell
     absolute magnetization    =     0.00 Bohr mag/cell

     iteration # 17     ecut=    90.00 Ry     beta= 0.40
     Davidson diagonalization with overlap
     ethr =  2.39E-10,  avg # of iterations =  2.0

     total cpu time spent up to now is      392.4 secs

     total energy              =   -1174.53182096 Ry
     estimated scf accuracy    <       0.00000001 Ry

     total magnetization       =     0.00 Bohr mag/cell
     absolute magnetization    =     0.00 Bohr mag/cell

     iteration # 18     ecut=    90.00 Ry     beta= 0.40
     Davidson diagonalization with overlap
     ethr =  1.22E-11,  avg # of iterations =  2.6

     total cpu time spent up to now is      412.3 secs

     total energy              =   -1174.53182097 Ry
     estimated scf accuracy    <          3.1E-09 Ry

     total magnetization       =    -0.00 Bohr mag/cell
     absolute magnetization    =     0.00 Bohr mag/cell

     iteration # 19     ecut=    90.00 Ry     beta= 0.40
     Davidson diagonalization with overlap
     ethr =  3.27E-12,  avg # of iterations =  2.9

     total cpu time spent up to now is      433.4 secs

     total energy              =   -1174.53182098 Ry
     estimated scf accuracy    <          1.8E-09 Ry

     total magnetization       =     0.00 Bohr mag/cell
     absolute magnetization    =     0.00 Bohr mag/cell

     iteration # 20     ecut=    90.00 Ry     beta= 0.40
     Davidson diagonalization with overlap
     ethr =  1.88E-12,  avg # of iterations =  2.1

     total cpu time spent up to now is      452.1 secs

     total energy              =   -1174.53182098 Ry
     estimated scf accuracy    <          3.9E-10 Ry

     total magnetization       =     0.00 Bohr mag/cell
     absolute magnetization    =     0.00 Bohr mag/cell

     iteration # 21     ecut=    90.00 Ry     beta= 0.40
     Davidson diagonalization with overlap
     ethr =  4.15E-13,  avg # of iterations =  2.9

     Magnetic moment per site:
     atom:    1    charge:   16.0169    magn:    0.0000    constr:    0.0000
     atom:    2    charge:   16.0169    magn:    0.0000    constr:    0.0000
     atom:    3    charge:   16.0169    magn:    0.0000    constr:    0.0000
     atom:    4    charge:   11.2193    magn:   -0.0000    constr:    0.0000
     atom:    5    charge:   11.2714    magn:   -0.0000    constr:    0.0000
     atom:    6    charge:   11.2714    magn:   -0.0000    constr:    0.0000

     total cpu time spent up to now is      473.3 secs

     End of self-consistent calculation

     Number of k-points >= 100: set verbosity='high' to print the bands.

     the Fermi energy is    16.8134 ev

!    total energy              =   -1174.53182098 Ry
     estimated scf accuracy    <          5.3E-11 Ry
     smearing contrib. (-TS)   =       0.00467673 Ry
     internal energy E=F+TS    =   -1174.53649770 Ry

     The total energy is F=E-TS. E is the sum of the following terms:
     one-electron contribution =    -589.26164560 Ry
     hartree contribution      =     348.56431078 Ry
     xc contribution           =    -127.78585271 Ry
     ewald contribution        =    -806.05331018 Ry

     total magnetization       =     0.00 Bohr mag/cell
     absolute magnetization    =     0.00 Bohr mag/cell

     convergence has been achieved in  21 iterations

     Forces acting on atoms (cartesian axes, Ry/au):

     atom    1 type  1   force =     0.00000000   -0.00000000   -0.00000000
     atom    2 type  1   force =     0.00000000    0.00000000    0.00000000
     atom    3 type  1   force =     0.00000000    0.00000000    0.00000000
     atom    4 type  2   force =     0.00000000    0.00000000    0.00000000
     atom    5 type  2   force =     0.00000000    0.00000000   -0.00000000
     atom    6 type  2   force =    -0.00000000   -0.00000000   -0.00000000

     Total force =     0.000000     Total SCF correction =     0.000000


     Computing stress (Cartesian axis) and pressure

          total   stress  (Ry/bohr**3)                   (kbar)     P=      128.51
   0.00091873  -0.00000000   0.00000000          135.15       -0.00        0.00
  -0.00000000   0.00091873   0.00000000           -0.00      135.15        0.00
   0.00000000   0.00000000   0.00078335            0.00        0.00      115.23


     Writing output data file ./out/cosn.save/

     init_run     :      4.97s CPU      5.40s WALL (       1 calls)
     electrons    :    436.44s CPU    467.89s WALL (       1 calls)
     forces       :      2.87s CPU      3.06s WALL (       1 calls)
     stress       :      3.21s CPU      3.35s WALL (       1 calls)

     Called by init_run:
     wfcinit      :      4.91s CPU      5.33s WALL (       1 calls)
     potinit      :      0.02s CPU      0.03s WALL (       1 calls)
     hinit0       :      0.02s CPU      0.02s WALL (       1 calls)

     Called by electrons:
     c_bands      :    412.78s CPU    441.86s WALL (      21 calls)
     sum_band     :     23.50s CPU     25.83s WALL (      21 calls)
     v_of_rho     :      0.13s CPU      0.14s WALL (      22 calls)
     mix_rho      :      0.03s CPU      0.04s WALL (      21 calls)

     Called by c_bands:
     init_us_2    :      1.28s CPU      1.38s WALL (   11970 calls)
     cegterg      :    405.95s CPU    434.59s WALL (    5586 calls)

     Called by *egterg:
     cdiaghg      :     79.64s CPU     83.89s WALL (   21917 calls)
     h_psi        :    189.08s CPU    204.70s WALL (   22183 calls)
     g_psi        :      1.04s CPU      1.04s WALL (   16331 calls)

     Called by h_psi:
     h_psi:calbec :     35.30s CPU     38.58s WALL (   22183 calls)
     vloc_psi     :    120.97s CPU    131.12s WALL (   22183 calls)
     add_vuspsi   :     32.44s CPU     34.64s WALL (   22183 calls)

     General routines
     calbec       :     38.68s CPU     42.20s WALL (   23513 calls)
     fft          :      0.07s CPU      0.08s WALL (     427 calls)
     ffts         :      0.01s CPU      0.01s WALL (      42 calls)
     fftw         :    129.71s CPU    141.21s WALL ( 1993476 calls)

     Parallel routines
     fft_scatt_xy :     15.17s CPU     16.18s WALL ( 1993945 calls)
     fft_scatt_yz :     79.01s CPU     87.08s WALL ( 1993945 calls)

     PWSCF        :   7m30.32s CPU   8m 5.18s WALL


   This run was terminated on:  16:31:58  15Jun2026            

=------------------------------------------------------------------------------=
   JOB DONE.
=------------------------------------------------------------------------------=
Note: The following floating-point exceptions are signalling: IEEE_DENORMAL
Note: The following floating-point exceptions are signalling: IEEE_DENORMAL
Note: The following floating-point exceptions are signalling: IEEE_DENORMAL
Note: The following floating-point exceptions are signalling: IEEE_DENORMAL
Note: The following floating-point exceptions are signalling: IEEE_DENORMAL
Note: The following floating-point exceptions are signalling: IEEE_DENORMAL
Note: The following floating-point exceptions are signalling: IEEE_DENORMAL
Note: The following floating-point exceptions are signalling: IEEE_DENORMAL
Note: The following floating-point exceptions are signalling: IEEE_DENORMAL
Note: The following floating-point exceptions are signalling: IEEE_DENORMAL
