
     Program PWSCF v.6.7MaX starts on 15Jun2026 at 16:13: 9 

     This program is part of the open-source Quantum ESPRESSO suite
     for quantum simulation of materials; please cite
         "P. Giannozzi et al., J. Phys.:Condens. Matter 21 395502 (2009);
         "P. Giannozzi et al., J. Phys.:Condens. Matter 29 465901 (2017);
          URL http://www.quantum-espresso.org", 
     in publications or presentations arising from this work. More details at
     http://www.quantum-espresso.org/quote

     Parallel version (MPI), running on    32 processors

     MPI processes distributed on     1 nodes
     R & G space division:  proc/nbgrp/npool/nimage =      32
     Reading input from scf.in

     Current dimensions of program PWSCF are:
     Max number of different atomic species (ntypx) = 10
     Max number of k-points (npk) =  40000
     Max angular momentum in pseudopotentials (lmaxx) =  3
     Message from routine read_pp_mesh:
     mesh size missing, using the one in header
     Message from routine read_pp_mesh:
     mesh size missing, using the one in header

     Subspace diagonalization in iterative solution of the eigenvalue problem:
     one sub-group per band group will be used
     scalapack distributed-memory algorithm (size of sub-group:  5*  5 procs)


     Parallelization info
     --------------------
     sticks:   dense  smooth     PW     G-vecs:    dense   smooth      PW
     Min          77      77     21                 2501     2501     371
     Max          78      78     22                 2504     2504     376
     Sum        2479    2479    685                80083    80083   11941



     bravais-lattice index     =            4
     lattice parameter (alat)  =       9.9760  a.u.
     unit-cell volume          =     693.6907 (a.u.)^3
     number of atoms/cell      =            6
     number of atomic types    =            2
     number of electrons       =        93.20
     number of Kohn-Sham states=           56
     kinetic-energy cutoff     =      90.0000  Ry
     charge density cutoff     =     360.0000  Ry
     scf convergence threshold =      1.0E-10
     mixing beta               =       0.4000
     number of iterations used =            8  plain     mixing
     Exchange-correlation= PBE
                           (   1   4   3   4   0   0   0)

     celldm(1)=   9.976000  celldm(2)=   0.000000  celldm(3)=   0.806800
     celldm(4)=   0.000000  celldm(5)=   0.000000  celldm(6)=   0.000000

     crystal axes: (cart. coord. in units of alat)
               a(1) = (   1.000000   0.000000   0.000000 )  
               a(2) = (  -0.500000   0.866025   0.000000 )  
               a(3) = (   0.000000   0.000000   0.806800 )  

     reciprocal axes: (cart. coord. in units 2 pi/alat)
               b(1) = (  1.000000  0.577350 -0.000000 )  
               b(2) = (  0.000000  1.154701  0.000000 )  
               b(3) = (  0.000000 -0.000000  1.239465 )  


     PseudoPot. # 1 for Co read from file:
     ./pseudo/Co_ONCV_PBE_sr.upf
     MD5 check sum: 04640e31e65e5bce9f0417487be359f7
     Pseudo is Norm-conserving, Zval = 17.0
     Generated using ONCVPSP code by D. R. Hamann
     Using radial grid of  602 points,  6 beta functions with: 
                l(1) =   0
                l(2) =   0
                l(3) =   1
                l(4) =   1
                l(5) =   2
                l(6) =   2

     PseudoPot. # 2 for Sn read from file:
     ./pseudo/Sn_ONCV_PBE_sr.upf
     MD5 check sum: 6680f7ee4d83b53e0fcd4167fcb72813
     Pseudo is Norm-conserving, Zval = 14.0
     Generated using ONCVPSP code by D. R. Hamann
     Using radial grid of  602 points,  6 beta functions with: 
                l(1) =   0
                l(2) =   0
                l(3) =   1
                l(4) =   1
                l(5) =   2
                l(6) =   2

     atomic species   valence    mass     pseudopotential
        Co            17.00    58.93300     Co( 1.00)
        Sn            14.00   118.71000     Sn( 1.00)

     Starting magnetic structure 
     atomic species   magnetization
        Co           0.300
        Sn           0.000

     24 Sym. Ops., with inversion, found



   Cartesian axes

     site n.     atom                  positions (alat units)
         1           Co  tau(   1) = (   0.5000000   0.0000000   0.0000000  )
         2           Co  tau(   2) = (  -0.2500000   0.4330127   0.0000000  )
         3           Co  tau(   3) = (   0.2500000   0.4330127   0.0000000  )
         4           Sn  tau(   4) = (   0.0000000   0.0000000   0.0000000  )
         5           Sn  tau(   5) = (  -0.0000005   0.5773506   0.4034000  )
         6           Sn  tau(   6) = (   0.5000005   0.2886748   0.4034000  )

     number of k points=   133  Methfessel-Paxton smearing, width (Ry)=  0.0200

     Number of k-points >= 100: set verbosity='high' to print them.

     Dense  grid:    80083 G-vectors     FFT dimensions: (  64,  64,  50)

     Estimated max dynamical RAM per process >      78.68 MB

     Estimated total dynamical RAM >       2.46 GB
     Generating pointlists ...
     new r_m :   0.2046 (alat units)  2.0413 (a.u.) for type    1
     new r_m :   0.2046 (alat units)  2.0413 (a.u.) for type    2

     Initial potential from superposition of free atoms

     starting charge   92.62773, renormalised to   93.20000
     Starting wfcs are random

     total cpu time spent up to now is        5.5 secs

     Self-consistent Calculation

     iteration #  1     ecut=    90.00 Ry     beta= 0.40
     Davidson diagonalization with overlap
     ethr =  1.00E-02,  avg # of iterations = 10.9

     total cpu time spent up to now is       82.3 secs

     total energy              =   -1174.35810016 Ry
     estimated scf accuracy    <       1.25832651 Ry

     total magnetization       =     4.75 Bohr mag/cell
     absolute magnetization    =     5.75 Bohr mag/cell

     iteration #  2     ecut=    90.00 Ry     beta= 0.40
     Davidson diagonalization with overlap
     ethr =  1.35E-03,  avg # of iterations =  1.7

     total cpu time spent up to now is       98.5 secs

     total energy              =   -1174.44909037 Ry
     estimated scf accuracy    <       0.57536310 Ry

     total magnetization       =     5.70 Bohr mag/cell
     absolute magnetization    =     6.54 Bohr mag/cell

     iteration #  3     ecut=    90.00 Ry     beta= 0.40
     Davidson diagonalization with overlap
     ethr =  6.17E-04,  avg # of iterations =  2.0

     total cpu time spent up to now is      117.0 secs

     total energy              =   -1174.63601064 Ry
     estimated scf accuracy    <       0.88124764 Ry

     total magnetization       =     3.34 Bohr mag/cell
     absolute magnetization    =     4.41 Bohr mag/cell

     iteration #  4     ecut=    90.00 Ry     beta= 0.40
     Davidson diagonalization with overlap
     ethr =  6.17E-04,  avg # of iterations =  1.5

     total cpu time spent up to now is      132.8 secs

     total energy              =   -1174.72832489 Ry
     estimated scf accuracy    <       0.04083929 Ry

     total magnetization       =     3.50 Bohr mag/cell
     absolute magnetization    =     4.38 Bohr mag/cell

     iteration #  5     ecut=    90.00 Ry     beta= 0.40
     Davidson diagonalization with overlap
     ethr =  4.38E-05,  avg # of iterations =  3.0

     total cpu time spent up to now is      151.3 secs

     total energy              =   -1174.75018550 Ry
     estimated scf accuracy    <       0.01094177 Ry

     total magnetization       =     2.37 Bohr mag/cell
     absolute magnetization    =     3.23 Bohr mag/cell

     iteration #  6     ecut=    90.00 Ry     beta= 0.40
     Davidson diagonalization with overlap
     ethr =  1.17E-05,  avg # of iterations =  3.0

     total cpu time spent up to now is      168.9 secs

     total energy              =   -1174.74971539 Ry
     estimated scf accuracy    <       0.00787562 Ry

     total magnetization       =     1.94 Bohr mag/cell
     absolute magnetization    =     2.73 Bohr mag/cell

     iteration #  7     ecut=    90.00 Ry     beta= 0.40
     Davidson diagonalization with overlap
     ethr =  8.45E-06,  avg # of iterations =  3.5

     total cpu time spent up to now is      191.6 secs

     total energy              =   -1174.77081580 Ry
     estimated scf accuracy    <       0.00553945 Ry

     total magnetization       =     0.51 Bohr mag/cell
     absolute magnetization    =     1.00 Bohr mag/cell

     iteration #  8     ecut=    90.00 Ry     beta= 0.40
     Davidson diagonalization with overlap
     ethr =  5.94E-06,  avg # of iterations =  1.0

     total cpu time spent up to now is      205.9 secs

     total energy              =   -1174.77421001 Ry
     estimated scf accuracy    <       0.00616727 Ry

     total magnetization       =     0.56 Bohr mag/cell
     absolute magnetization    =     1.06 Bohr mag/cell

     iteration #  9     ecut=    90.00 Ry     beta= 0.40
     Davidson diagonalization with overlap
     ethr =  5.94E-06,  avg # of iterations =  2.0

     total cpu time spent up to now is      223.8 secs

     total energy              =   -1174.77729127 Ry
     estimated scf accuracy    <       0.00252758 Ry

     total magnetization       =     0.26 Bohr mag/cell
     absolute magnetization    =     0.52 Bohr mag/cell

     iteration # 10     ecut=    90.00 Ry     beta= 0.40
     Davidson diagonalization with overlap
     ethr =  2.71E-06,  avg # of iterations =  1.9

     total cpu time spent up to now is      240.4 secs

     total energy              =   -1174.77671934 Ry
     estimated scf accuracy    <       0.00030071 Ry

     total magnetization       =     0.20 Bohr mag/cell
     absolute magnetization    =     0.38 Bohr mag/cell

     iteration # 11     ecut=    90.00 Ry     beta= 0.40
     Davidson diagonalization with overlap
     ethr =  3.23E-07,  avg # of iterations =  4.0

     total cpu time spent up to now is      265.4 secs

     total energy              =   -1174.77820870 Ry
     estimated scf accuracy    <       0.00056695 Ry

     total magnetization       =    -0.05 Bohr mag/cell
     absolute magnetization    =     0.07 Bohr mag/cell

     iteration # 12     ecut=    90.00 Ry     beta= 0.40
     Davidson diagonalization with overlap
     ethr =  3.23E-07,  avg # of iterations =  1.0

     total cpu time spent up to now is      279.8 secs

     total energy              =   -1174.77821886 Ry
     estimated scf accuracy    <       0.00054879 Ry

     total magnetization       =    -0.05 Bohr mag/cell
     absolute magnetization    =     0.07 Bohr mag/cell

     iteration # 13     ecut=    90.00 Ry     beta= 0.40
     Davidson diagonalization with overlap
     ethr =  3.23E-07,  avg # of iterations =  1.8

     total cpu time spent up to now is      296.2 secs

     total energy              =   -1174.77830621 Ry
     estimated scf accuracy    <       0.00006117 Ry

     total magnetization       =    -0.02 Bohr mag/cell
     absolute magnetization    =     0.04 Bohr mag/cell

     iteration # 14     ecut=    90.00 Ry     beta= 0.40
     Davidson diagonalization with overlap
     ethr =  6.56E-08,  avg # of iterations =  1.5

     total cpu time spent up to now is      311.6 secs

     total energy              =   -1174.77826951 Ry
     estimated scf accuracy    <       0.00002628 Ry

     total magnetization       =    -0.02 Bohr mag/cell
     absolute magnetization    =     0.04 Bohr mag/cell

     iteration # 15     ecut=    90.00 Ry     beta= 0.40
     Davidson diagonalization with overlap
     ethr =  2.82E-08,  avg # of iterations =  2.9

     total cpu time spent up to now is      331.0 secs

     total energy              =   -1174.77831497 Ry
     estimated scf accuracy    <       0.00000557 Ry

     total magnetization       =     0.03 Bohr mag/cell
     absolute magnetization    =     0.04 Bohr mag/cell

     iteration # 16     ecut=    90.00 Ry     beta= 0.40
     Davidson diagonalization with overlap
     ethr =  5.97E-09,  avg # of iterations =  2.5

     total cpu time spent up to now is      350.0 secs

     total energy              =   -1174.77832202 Ry
     estimated scf accuracy    <       0.00000084 Ry

     total magnetization       =     0.01 Bohr mag/cell
     absolute magnetization    =     0.02 Bohr mag/cell

     iteration # 17     ecut=    90.00 Ry     beta= 0.40
     Davidson diagonalization with overlap
     ethr =  9.02E-10,  avg # of iterations =  2.8

     total cpu time spent up to now is      370.0 secs

     total energy              =   -1174.77832267 Ry
     estimated scf accuracy    <       0.00000032 Ry

     total magnetization       =     0.01 Bohr mag/cell
     absolute magnetization    =     0.01 Bohr mag/cell

     iteration # 18     ecut=    90.00 Ry     beta= 0.40
     Davidson diagonalization with overlap
     ethr =  3.44E-10,  avg # of iterations =  2.8

     total cpu time spent up to now is      390.5 secs

     total energy              =   -1174.77832325 Ry
     estimated scf accuracy    <       0.00000013 Ry

     total magnetization       =     0.01 Bohr mag/cell
     absolute magnetization    =     0.01 Bohr mag/cell

     iteration # 19     ecut=    90.00 Ry     beta= 0.40
     Davidson diagonalization with overlap
     ethr =  1.37E-10,  avg # of iterations =  2.4

     total cpu time spent up to now is      411.1 secs

     total energy              =   -1174.77832338 Ry
     estimated scf accuracy    <       0.00000004 Ry

     total magnetization       =     0.00 Bohr mag/cell
     absolute magnetization    =     0.01 Bohr mag/cell

     iteration # 20     ecut=    90.00 Ry     beta= 0.40
     Davidson diagonalization with overlap
     ethr =  4.19E-11,  avg # of iterations =  3.2

     total cpu time spent up to now is      434.5 secs

     total energy              =   -1174.77832350 Ry
     estimated scf accuracy    <       0.00000001 Ry

     total magnetization       =     0.00 Bohr mag/cell
     absolute magnetization    =     0.00 Bohr mag/cell

     iteration # 21     ecut=    90.00 Ry     beta= 0.40
     Davidson diagonalization with overlap
     ethr =  1.19E-11,  avg # of iterations =  3.3

     total cpu time spent up to now is      456.4 secs

     total energy              =   -1174.77832354 Ry
     estimated scf accuracy    <          3.3E-09 Ry

     total magnetization       =     0.00 Bohr mag/cell
     absolute magnetization    =     0.00 Bohr mag/cell

     iteration # 22     ecut=    90.00 Ry     beta= 0.40
     Davidson diagonalization with overlap
     ethr =  3.55E-12,  avg # of iterations =  3.6

     total cpu time spent up to now is      479.9 secs

     total energy              =   -1174.77832356 Ry
     estimated scf accuracy    <          2.9E-10 Ry

     total magnetization       =     0.00 Bohr mag/cell
     absolute magnetization    =     0.00 Bohr mag/cell

     iteration # 23     ecut=    90.00 Ry     beta= 0.40
     Davidson diagonalization with overlap
     ethr =  3.14E-13,  avg # of iterations =  2.0

     Magnetic moment per site:
     atom:    1    charge:   15.9988    magn:    0.0000    constr:    0.0000
     atom:    2    charge:   15.9988    magn:    0.0000    constr:    0.0000
     atom:    3    charge:   15.9988    magn:    0.0000    constr:    0.0000
     atom:    4    charge:   11.2056    magn:   -0.0000    constr:    0.0000
     atom:    5    charge:   11.2587    magn:   -0.0000    constr:    0.0000
     atom:    6    charge:   11.2587    magn:   -0.0000    constr:    0.0000

     total cpu time spent up to now is      498.1 secs

     End of self-consistent calculation

     Number of k-points >= 100: set verbosity='high' to print the bands.

     the Fermi energy is    16.7268 ev

!    total energy              =   -1174.77832356 Ry
     estimated scf accuracy    <          8.1E-11 Ry
     smearing contrib. (-TS)   =       0.00441574 Ry
     internal energy E=F+TS    =   -1174.78273930 Ry

     The total energy is F=E-TS. E is the sum of the following terms:
     one-electron contribution =    -589.55557997 Ry
     hartree contribution      =     348.41811311 Ry
     xc contribution           =    -127.59196226 Ry
     ewald contribution        =    -806.05331018 Ry

     total magnetization       =     0.00 Bohr mag/cell
     absolute magnetization    =     0.00 Bohr mag/cell

     convergence has been achieved in  23 iterations

     Forces acting on atoms (cartesian axes, Ry/au):

     atom    1 type  1   force =     0.00000000   -0.00000000    0.00000000
     atom    2 type  1   force =     0.00000000   -0.00000000    0.00000000
     atom    3 type  1   force =    -0.00000000   -0.00000000    0.00000000
     atom    4 type  2   force =     0.00000000    0.00000000   -0.00000000
     atom    5 type  2   force =    -0.00000000   -0.00000000   -0.00000000
     atom    6 type  2   force =     0.00000000    0.00000000    0.00000000

     Total force =     0.000000     Total SCF correction =     0.000000


     Computing stress (Cartesian axis) and pressure

          total   stress  (Ry/bohr**3)                   (kbar)     P=       64.50
   0.00048425  -0.00000000   0.00000000           71.24       -0.00        0.00
  -0.00000000   0.00048425   0.00000000           -0.00       71.24        0.00
   0.00000000   0.00000000   0.00034683            0.00        0.00       51.02


     Writing output data file ./out/cosn.save/

     init_run     :      4.95s CPU      5.43s WALL (       1 calls)
     electrons    :    458.65s CPU    492.64s WALL (       1 calls)
     forces       :      2.88s CPU      3.05s WALL (       1 calls)
     stress       :      3.17s CPU      3.31s WALL (       1 calls)

     Called by init_run:
     wfcinit      :      4.89s CPU      5.36s WALL (       1 calls)
     potinit      :      0.02s CPU      0.03s WALL (       1 calls)
     hinit0       :      0.02s CPU      0.02s WALL (       1 calls)

     Called by electrons:
     c_bands      :    433.04s CPU    464.33s WALL (      23 calls)
     sum_band     :     25.45s CPU     28.12s WALL (      23 calls)
     v_of_rho     :      0.13s CPU      0.15s WALL (      24 calls)
     mix_rho      :      0.03s CPU      0.04s WALL (      23 calls)

     Called by c_bands:
     init_us_2    :      1.37s CPU      1.45s WALL (   13034 calls)
     cegterg      :    425.80s CPU    456.64s WALL (    6118 calls)

     Called by *egterg:
     cdiaghg      :     84.05s CPU     88.06s WALL (   23282 calls)
     h_psi        :    198.85s CPU    215.53s WALL (   23548 calls)
     g_psi        :      1.10s CPU      1.11s WALL (   17164 calls)

     Called by h_psi:
     h_psi:calbec :     37.47s CPU     41.01s WALL (   23548 calls)
     vloc_psi     :    126.19s CPU    137.07s WALL (   23548 calls)
     add_vuspsi   :     34.78s CPU     37.04s WALL (   23548 calls)

     General routines
     calbec       :     40.83s CPU     44.58s WALL (   24878 calls)
     fft          :      0.06s CPU      0.07s WALL (     465 calls)
     ffts         :      0.01s CPU      0.01s WALL (      46 calls)
     fftw         :    135.78s CPU    148.35s WALL ( 2145528 calls)

     Parallel routines
     fft_scatt_xy :     16.49s CPU     17.60s WALL ( 2146039 calls)
     fft_scatt_yz :     81.79s CPU     90.62s WALL ( 2146039 calls)

     PWSCF        :   7m52.54s CPU   8m29.88s WALL


   This run was terminated on:  16:21:39  15Jun2026            

=------------------------------------------------------------------------------=
   JOB DONE.
=------------------------------------------------------------------------------=
Note: The following floating-point exceptions are signalling: IEEE_DENORMAL
Note: The following floating-point exceptions are signalling: IEEE_DENORMAL
Note: The following floating-point exceptions are signalling: IEEE_DENORMAL
Note: The following floating-point exceptions are signalling: IEEE_DENORMAL
Note: The following floating-point exceptions are signalling: IEEE_DENORMAL
Note: The following floating-point exceptions are signalling: IEEE_DENORMAL
Note: The following floating-point exceptions are signalling: IEEE_DENORMAL
Note: The following floating-point exceptions are signalling: IEEE_DENORMAL
Note: The following floating-point exceptions are signalling: IEEE_DENORMAL
Note: The following floating-point exceptions are signalling: IEEE_DENORMAL
Note: The following floating-point exceptions are signalling: IEEE_DENORMAL
Note: The following floating-point exceptions are signalling: IEEE_DENORMAL
Note: The following floating-point exceptions are signalling: IEEE_DENORMAL
Note: The following floating-point exceptions are signalling: IEEE_DENORMAL
