
     Program PWSCF v.6.7MaX starts on 15Jun2026 at 16:31:59 

     This program is part of the open-source Quantum ESPRESSO suite
     for quantum simulation of materials; please cite
         "P. Giannozzi et al., J. Phys.:Condens. Matter 21 395502 (2009);
         "P. Giannozzi et al., J. Phys.:Condens. Matter 29 465901 (2017);
          URL http://www.quantum-espresso.org", 
     in publications or presentations arising from this work. More details at
     http://www.quantum-espresso.org/quote

     Parallel version (MPI), running on    32 processors

     MPI processes distributed on     1 nodes
     R & G space division:  proc/nbgrp/npool/nimage =      32
     Reading input from bands.in

     Current dimensions of program PWSCF are:
     Max number of different atomic species (ntypx) = 10
     Max number of k-points (npk) =  40000
     Max angular momentum in pseudopotentials (lmaxx) =  3

     Atomic positions and unit cell read from directory:
     ./out/cosn.save/
     Atomic positions from file used, from input discarded

     Message from routine read_pp_mesh:
     mesh size missing, using the one in header
     Message from routine read_pp_mesh:
     mesh size missing, using the one in header

     Subspace diagonalization in iterative solution of the eigenvalue problem:
     one sub-group per band group will be used
     scalapack distributed-memory algorithm (size of sub-group:  5*  5 procs)


     Parallelization info
     --------------------
     sticks:   dense  smooth     PW     G-vecs:    dense   smooth      PW
     Min          77      77     21                 2501     2501     355
     Max          78      78     22                 2504     2504     359
     Sum        2479    2479    673                80083    80083   11401



     bravais-lattice index     =            4
     lattice parameter (alat)  =       9.9760  a.u.
     unit-cell volume          =     693.6907 (a.u.)^3
     number of atoms/cell      =            6
     number of atomic types    =            2
     number of electrons       =        93.40
     number of Kohn-Sham states=           80
     kinetic-energy cutoff     =      90.0000  Ry
     charge density cutoff     =     360.0000  Ry
     Exchange-correlation= PBE
                           (   1   4   3   4   0   0   0)

     celldm(1)=   9.976000  celldm(2)=   0.000000  celldm(3)=   0.806800
     celldm(4)=   0.000000  celldm(5)=   0.000000  celldm(6)=   0.000000

     crystal axes: (cart. coord. in units of alat)
               a(1) = (   1.000000   0.000000   0.000000 )  
               a(2) = (  -0.500000   0.866025   0.000000 )  
               a(3) = (   0.000000   0.000000   0.806800 )  

     reciprocal axes: (cart. coord. in units 2 pi/alat)
               b(1) = (  1.000000  0.577350 -0.000000 )  
               b(2) = (  0.000000  1.154701  0.000000 )  
               b(3) = (  0.000000 -0.000000  1.239465 )  


     PseudoPot. # 1 for Co read from file:
     ./pseudo/Co_ONCV_PBE_sr.upf
     MD5 check sum: 04640e31e65e5bce9f0417487be359f7
     Pseudo is Norm-conserving, Zval = 17.0
     Generated using ONCVPSP code by D. R. Hamann
     Using radial grid of  602 points,  6 beta functions with: 
                l(1) =   0
                l(2) =   0
                l(3) =   1
                l(4) =   1
                l(5) =   2
                l(6) =   2

     PseudoPot. # 2 for Sn read from file:
     ./pseudo/Sn_ONCV_PBE_sr.upf
     MD5 check sum: 6680f7ee4d83b53e0fcd4167fcb72813
     Pseudo is Norm-conserving, Zval = 14.0
     Generated using ONCVPSP code by D. R. Hamann
     Using radial grid of  602 points,  6 beta functions with: 
                l(1) =   0
                l(2) =   0
                l(3) =   1
                l(4) =   1
                l(5) =   2
                l(6) =   2

     atomic species   valence    mass     pseudopotential
        Co            17.00    58.93300     Co( 1.00)
        Sn            14.00   118.71000     Sn( 1.00)

     Starting magnetic structure 
     atomic species   magnetization
        Co           0.300
        Sn           0.000

     24 Sym. Ops., with inversion, found



   Cartesian axes

     site n.     atom                  positions (alat units)
         1           Co  tau(   1) = (   0.5000000   0.0000000   0.0000000  )
         2           Co  tau(   2) = (  -0.2500000   0.4330127   0.0000000  )
         3           Co  tau(   3) = (   0.2500000   0.4330127   0.0000000  )
         4           Sn  tau(   4) = (   0.0000000   0.0000000   0.0000000  )
         5           Sn  tau(   5) = (  -0.0000005   0.5773506   0.4034000  )
         6           Sn  tau(   6) = (   0.5000005   0.2886748   0.4034000  )

     number of k points=    49  Methfessel-Paxton smearing, width (Ry)=  0.0200
                       cart. coord. in units 2pi/alat
        k(    1) = (   0.0000000   0.0000000   0.0000000), wk =   0.0204082
        k(    2) = (   0.0277750   0.0481077   0.0000000), wk =   0.0204082
        k(    3) = (   0.0555500   0.0962154   0.0000000), wk =   0.0204082
        k(    4) = (   0.0833250   0.1443231   0.0000000), wk =   0.0204082
        k(    5) = (   0.1111000   0.1924308   0.0000000), wk =   0.0204082
        k(    6) = (   0.1388750   0.2405386   0.0000000), wk =   0.0204082
        k(    7) = (   0.1666500   0.2886463   0.0000000), wk =   0.0204082
        k(    8) = (   0.1944250   0.3367540   0.0000000), wk =   0.0204082
        k(    9) = (   0.2222000   0.3848617   0.0000000), wk =   0.0204082
        k(   10) = (   0.2499750   0.4329694   0.0000000), wk =   0.0204082
        k(   11) = (   0.2777500   0.4810771   0.0000000), wk =   0.0204082
        k(   12) = (   0.3055250   0.5291848   0.0000000), wk =   0.0204082
        k(   13) = (   0.3333000   0.5772925   0.0000000), wk =   0.0204082
        k(   14) = (   0.3471917   0.5532411   0.0000000), wk =   0.0204082
        k(   15) = (   0.3610833   0.5291896   0.0000000), wk =   0.0204082
        k(   16) = (   0.3749750   0.5051382   0.0000000), wk =   0.0204082
        k(   17) = (   0.3888667   0.4810867   0.0000000), wk =   0.0204082
        k(   18) = (   0.4027583   0.4570353   0.0000000), wk =   0.0204082
        k(   19) = (   0.4166500   0.4329838   0.0000000), wk =   0.0204082
        k(   20) = (   0.4305417   0.4089324   0.0000000), wk =   0.0204082
        k(   21) = (   0.4444333   0.3848809   0.0000000), wk =   0.0204082
        k(   22) = (   0.4583250   0.3608295   0.0000000), wk =   0.0204082
        k(   23) = (   0.4722167   0.3367780   0.0000000), wk =   0.0204082
        k(   24) = (   0.4861083   0.3127266   0.0000000), wk =   0.0204082
        k(   25) = (   0.5000000   0.2886751   0.0000000), wk =   0.0204082
        k(   26) = (   0.4583333   0.2646189   0.0000000), wk =   0.0204082
        k(   27) = (   0.4166667   0.2405626   0.0000000), wk =   0.0204082
        k(   28) = (   0.3750000   0.2165064   0.0000000), wk =   0.0204082
        k(   29) = (   0.3333333   0.1924501   0.0000000), wk =   0.0204082
        k(   30) = (   0.2916667   0.1683938   0.0000000), wk =   0.0204082
        k(   31) = (   0.2500000   0.1443376   0.0000000), wk =   0.0204082
        k(   32) = (   0.2083333   0.1202813   0.0000000), wk =   0.0204082
        k(   33) = (   0.1666667   0.0962250   0.0000000), wk =   0.0204082
        k(   34) = (   0.1250000   0.0721688   0.0000000), wk =   0.0204082
        k(   35) = (   0.0833333   0.0481125   0.0000000), wk =   0.0204082
        k(   36) = (   0.0416667   0.0240563   0.0000000), wk =   0.0204082
        k(   37) = (   0.0000000   0.0000000   0.0000000), wk =   0.0204082
        k(   38) = (   0.0000000   0.0000000   0.0516444), wk =   0.0204082
        k(   39) = (   0.0000000   0.0000000   0.1032887), wk =   0.0204082
        k(   40) = (   0.0000000   0.0000000   0.1549331), wk =   0.0204082
        k(   41) = (   0.0000000   0.0000000   0.2065774), wk =   0.0204082
        k(   42) = (   0.0000000   0.0000000   0.2582218), wk =   0.0204082
        k(   43) = (   0.0000000   0.0000000   0.3098661), wk =   0.0204082
        k(   44) = (   0.0000000   0.0000000   0.3615105), wk =   0.0204082
        k(   45) = (   0.0000000   0.0000000   0.4131549), wk =   0.0204082
        k(   46) = (   0.0000000   0.0000000   0.4647992), wk =   0.0204082
        k(   47) = (   0.0000000   0.0000000   0.5164436), wk =   0.0204082
        k(   48) = (   0.0000000   0.0000000   0.5680879), wk =   0.0204082
        k(   49) = (   0.0000000   0.0000000   0.6197323), wk =   0.0204082

     Dense  grid:    80083 G-vectors     FFT dimensions: (  64,  64,  50)

     Estimated max dynamical RAM per process >       8.64 MB

     Estimated total dynamical RAM >     276.46 MB
     Generating pointlists ...
     new r_m :   0.2046 (alat units)  2.0413 (a.u.) for type    1
     new r_m :   0.2046 (alat units)  2.0413 (a.u.) for type    2

     The potential is recalculated from file :
     ./out/cosn.save/charge-density

     Starting wfcs are random

     Band Structure Calculation
     Davidson diagonalization with overlap

     ethr =  1.07E-09,  avg # of iterations = 18.8

     total cpu time spent up to now is      102.6 secs

     End of band structure calculation

 ------ SPIN UP ------------


          k = 0.0000 0.0000 0.0000 ( 10021 PWs)   bands (ev):

   -77.6158 -77.6030 -77.6029 -40.9806 -40.9214 -40.9078 -40.9077 -40.9055
   -40.9054 -40.8406 -40.8406 -40.8301  -4.9462  -4.8715  -4.8715  -4.8378
    -4.8378  -4.8098  -4.7891  -4.7891  -4.7534  -4.7534  -4.6994  -4.6994
    -4.6968  -4.6968  -4.6565   5.3194   9.8807  11.4491  12.6585  12.6586
    13.3874  13.7605  14.0364  14.0658  14.0659  14.7433  14.7434  15.1844
    15.1845  16.3153  16.3154  16.3311  16.3713  16.3714  17.2269  17.3026
    18.0510  18.0511  19.4569  20.1337  21.6543  21.6544  22.4225  23.1487
    23.1488  23.3374  25.2546  25.2546  25.5086  26.1443  26.1444  27.6877
    27.6877  28.8031  31.9349  31.9350  32.1648  34.3554  34.4612  34.4613
    35.0914  35.3335  35.3335  36.4222  36.7823  36.7823  37.3253  37.5784

          k = 0.0278 0.0481 0.0000 ( 10021 PWs)   bands (ev):

   -77.6158 -77.6031 -77.6029 -40.9800 -40.9213 -40.9079 -40.9077 -40.9055
   -40.9051 -40.8411 -40.8407 -40.8303  -4.9459  -4.8736  -4.8727  -4.8385
    -4.8383  -4.8112  -4.7884  -4.7879  -4.7514  -4.7509  -4.6991  -4.6989
    -4.6976  -4.6968  -4.6567   5.3366   9.8699  11.3106  12.6124  12.7424
    13.3916  13.7513  14.0383  14.1141  14.1207  14.7432  14.7465  15.1751
    15.1901  16.3165  16.3239  16.3257  16.3694  16.3839  17.2264  17.3396
    18.0601  18.0691  19.4739  20.1268  21.5818  21.6492  22.3716  22.7309
    23.1355  23.7472  25.2803  25.3720  25.5786  26.1877  26.2221  27.5181
    27.6403  28.6683  32.0111  32.1172  32.3540  34.1568  34.2350  34.2726
    34.9225  35.1719  35.2859  36.3097  36.7586  36.9730  37.1028  37.6984

          k = 0.0555 0.0962 0.0000 ( 10003 PWs)   bands (ev):

   -77.6156 -77.6033 -77.6029 -40.9784 -40.9211 -40.9081 -40.9077 -40.9055
   -40.9040 -40.8428 -40.8411 -40.8310  -4.9453  -4.8797  -4.8757  -4.8402
    -4.8394  -4.8144  -4.7863  -4.7844  -4.7460  -4.7448  -4.7001  -4.6982
    -4.6971  -4.6970  -4.6571   5.3882   9.8345  10.9892  12.4986  12.9046
    13.4041  13.7511  14.0436  14.2371  14.2488  14.7430  14.7568  15.1473
    15.2069  16.3087  16.3187  16.3458  16.3635  16.4230  17.2266  17.4404
    18.0946  18.1295  19.5278  20.1039  21.3853  21.6089  22.2373  22.2760
    23.1077  24.2093  25.3246  25.6877  25.7638  26.3254  26.4442  27.0798
    27.5126  28.4127  32.2192  32.3442  33.0024  33.5060  33.6626  33.8513
    34.8093  34.8436  35.1552  35.9650  36.4432  37.0464  37.1058  38.1290

          k = 0.0833 0.1443 0.0000 (  9989 PWs)   bands (ev):

   -77.6153 -77.6036 -77.6029 -40.9757 -40.9208 -40.9084 -40.9077 -40.9056
   -40.9021 -40.8456 -40.8418 -40.8319  -4.9442  -4.8890  -4.8797  -4.8424
    -4.8409  -4.8180  -4.7836  -4.7793  -4.7384  -4.7373  -4.7040  -4.6972
    -4.6964  -4.6943  -4.6578   5.4742   9.7675  10.5970  12.3688  13.0525
    13.4248  13.7782  14.0511  14.3545  14.4349  14.7427  14.7789  15.1026
    15.2345  16.2809  16.3169  16.3537  16.3737  16.4908  17.2320  17.5677
    18.1799  18.2506  19.6283  20.0593  21.1087  21.4804  21.7542  22.2482
    23.0925  24.6182  25.3709  25.7705  26.1230  26.5766  26.7575  26.7854
    27.3474  28.1703  32.2520  32.4295  32.9745  33.0539  33.2328  33.8354
    34.5224  34.7828  34.9681  35.3994  36.2268  36.9554  37.1727  38.0826

          k = 0.1111 0.1924 0.0000 ( 10007 PWs)   bands (ev):

   -77.6148 -77.6040 -77.6029 -40.9721 -40.9203 -40.9089 -40.9077 -40.9059
   -40.8996 -40.8494 -40.8428 -40.8332  -4.9430  -4.9002  -4.8837  -4.8446
    -4.8424  -4.8213  -4.7808  -4.7734  -4.7301  -4.7300  -4.7089  -4.6974
    -4.6936  -4.6904  -4.6586   5.5941   9.6609  10.1850  12.2693  13.1688
    13.4531  13.8296  14.0591  14.4388  14.6209  14.7427  14.8227  15.0440
    15.2726  16.2434  16.3028  16.3401  16.4025  16.5891  17.2463  17.6643
    18.3443  18.4587  19.7925  19.9877  20.7902  21.2719  21.2887  22.3234
    23.1162  24.9529  25.2180  25.4240  26.5415  26.9552  26.9652  27.2192
    27.2590  27.9987  31.4727  31.8958  32.4904  33.0540  33.3790  33.9302
    34.2202  34.7506  34.7828  35.5136  36.0466  36.8568  37.2443  37.9839

          k = 0.1389 0.2405 0.0000 ( 10015 PWs)   bands (ev):

   -77.6143 -77.6046 -77.6029 -40.9678 -40.9197 -40.9094 -40.9077 -40.9064
   -40.8963 -40.8539 -40.8440 -40.8347  -4.9417  -4.9122  -4.8868  -4.8462
    -4.8433  -4.8244  -4.7788  -4.7672  -4.7239  -4.7225  -4.7144  -4.6976
    -4.6894  -4.6858  -4.6596   5.7478   9.5115   9.7756  12.2281  13.2620
    13.4886  13.8978  14.0651  14.4751  14.7428  14.7659  14.8970  14.9761
    15.3203  16.1977  16.2683  16.3229  16.4302  16.7195  17.2700  17.7095
    18.5668  18.7741  19.8872  20.0410  20.4541  20.8446  21.0414  22.4666
    23.1951  24.4932  25.2190  25.4851  26.6214  27.1761  27.4520  27.5547
    27.7222  28.0674  30.5997  31.0934  31.7054  33.1749  33.4019  33.9237
    33.9258  34.5213  34.8363  35.8530  36.4587  36.8044  37.3202  37.7209

          k = 0.1666 0.2886 0.0000 ( 10007 PWs)   bands (ev):

   -77.6137 -77.6052 -77.6029 -40.9628 -40.9191 -40.9101 -40.9077 -40.9072
   -40.8925 -40.8589 -40.8454 -40.8364  -4.9409  -4.9236  -4.8886  -4.8471
    -4.8436  -4.8276  -4.7783  -4.7611  -4.7197  -4.7191  -4.7166  -4.6977
    -4.6837  -4.6809  -4.6605   5.9345   9.3244   9.3804  12.2555  13.3404
    13.5306  13.9741  14.0663  14.4698  14.7426  14.8543  14.9046  14.9974
    15.3768  16.1455  16.2118  16.3023  16.4569  16.8832  17.3026  17.7217
    18.7930  19.1920  19.7614  20.0987  20.3933  20.4239  20.8340  22.6472
    23.3333  23.7895  25.4410  25.5501  26.4729  27.1180  28.0401  28.0889
    28.2700  28.3983  29.8476  30.3436  30.9254  32.3249  33.6297  33.6328
    34.2922  34.5093  35.0430  35.6623  36.8030  37.1691  37.1865  37.2207

          k = 0.1944 0.3368 0.0000 ( 10007 PWs)   bands (ev):

   -77.6130 -77.6059 -77.6029 -40.9574 -40.9184 -40.9108 -40.9086 -40.9077
   -40.8881 -40.8640 -40.8470 -40.8383  -4.9423  -4.9319  -4.8886  -4.8473
    -4.8431  -4.8312  -4.7799  -4.7555  -4.7241  -4.7155  -4.7126  -4.6975
    -4.6771  -4.6763  -4.6614   6.1533   9.0063   9.1116  12.3488  13.4079
    13.5782  14.0447  14.0592  14.4409  14.7409  14.8362  14.8903  15.1134
    15.4408  16.0884  16.1386  16.2787  16.4831  17.0805  17.3473  17.7188
    18.9948  19.6173  19.6565  19.7482  20.0284  20.7057  20.7887  22.8432
    23.1919  23.5265  25.6090  25.6432  26.3100  26.9753  28.2821  28.4581
    28.6928  28.8024  29.7418  29.8712  30.2198  31.4591  33.3518  33.6535
    34.0706  35.1364  35.4613  35.4781  36.3472  36.5565  36.7996  37.1293

          k = 0.2222 0.3849 0.0000 (  9987 PWs)   bands (ev):

   -77.6123 -77.6066 -77.6029 -40.9517 -40.9176 -40.9116 -40.9109 -40.9077
   -40.8834 -40.8685 -40.8486 -40.8404  -4.9486  -4.9341  -4.8867  -4.8467
    -4.8419  -4.8353  -4.7839  -4.7504  -4.7274  -4.7128  -4.7102  -4.6972
    -4.6724  -4.6711  -4.6616   6.4029   8.6574   8.8874  12.4989  13.4654
    13.6304  14.0408  14.0810  14.4168  14.7357  14.7772  14.8865  15.2376
    15.5109  16.0282  16.0559  16.2528  16.5089  17.3106  17.4112  17.7111
    19.1704  19.3897  19.4638  19.6591  19.9705  20.8342  21.1142  22.8295
    23.0322  23.7648  25.6430  25.8421  26.1877  26.8396  27.6183  28.1876
    28.9330  29.3910  29.9802  30.1203  30.2433  30.6824  33.0853  33.5431
    33.8610  35.2495  35.5586  35.8193  35.8252  35.9918  36.6479  36.8334

          k = 0.2500 0.4330 0.0000 (  9981 PWs)   bands (ev):

   -77.6115 -77.6073 -77.6030 -40.9459 -40.9168 -40.9141 -40.9123 -40.9077
   -40.8786 -40.8722 -40.8502 -40.8426  -4.9558  -4.9339  -4.8829  -4.8454
    -4.8403  -4.8402  -4.7896  -4.7460  -4.7297  -4.7109  -4.7087  -4.6967
    -4.6694  -4.6672  -4.6604   6.6807   8.3368   8.6656  12.6950  13.5121
    13.6859  14.0094  14.0409  14.4340  14.7239  14.7322  14.8589  15.3637
    15.5849  15.9666  15.9691  16.2261  16.5338  17.5031  17.5721  17.7051
    19.0054  19.3096  19.3169  19.3499  19.9846  21.1622  21.3437  22.8876
    23.1881  24.0336  25.6251  26.0480  26.1312  26.5970  27.0730  27.5940
    28.3840  29.7206  30.1201  30.4896  30.7752  31.1274  32.8379  33.3763
    33.6660  34.8096  35.0579  35.0784  36.0123  36.0553  36.7502  36.7803

          k = 0.2777 0.4811 0.0000 (  9989 PWs)   bands (ev):

   -77.6108 -77.6081 -77.6030 -40.9401 -40.9184 -40.9160 -40.9131 -40.9077
   -40.8747 -40.8742 -40.8514 -40.8449  -4.9614  -4.9334  -4.8773  -4.8463
    -4.8435  -4.8383  -4.7957  -4.7423  -4.7315  -4.7096  -4.7081  -4.6962
    -4.6675  -4.6662  -4.6575   6.9814   8.0464   8.4597  12.9255  13.5468
    13.7436  13.9197  13.9660  14.4892  14.6999  14.7028  14.8255  15.4861
    15.6599  15.8807  15.9055  16.2006  16.5565  17.6308  17.7057  17.8614
    18.6361  19.0023  19.1633  19.5061  19.9001  20.9906  22.0019  23.2557
    23.2830  24.3108  25.5141  26.0805  26.1389  26.2667  27.0028  27.0231
    27.7364  28.9573  30.8638  31.1741  31.5146  31.9052  32.6154  33.1951
    33.4858  34.1122  34.3436  34.8544  35.3986  35.5307  37.3377  37.4442

          k = 0.3055 0.5292 0.0000 (  9969 PWs)   bands (ev):

   -77.6100 -77.6088 -77.6030 -40.9344 -40.9235 -40.9152 -40.9139 -40.9077
   -40.8760 -40.8711 -40.8514 -40.8473  -4.9649  -4.9331  -4.8701  -4.8534
    -4.8412  -4.8374  -4.8007  -4.7390  -4.7335  -4.7087  -4.7080  -4.6957
    -4.6664  -4.6661  -4.6553   7.2916   7.7879   8.2886  13.1752  13.5682
    13.7396  13.8017  13.9141  14.5536  14.6598  14.6877  14.8030  15.5990
    15.7313  15.7908  15.8468  16.1803  16.5741  17.7157  17.7987  18.1691
    18.2894  18.7160  19.0376  19.6449  19.8104  20.8167  22.6635  23.3026
    23.5586  24.5528  25.2838  25.8021  26.0770  26.5015  26.7249  27.0445
    27.1558  28.3122  31.5819  31.8517  32.2044  32.4505  32.6361  33.0377
    33.3087  33.5153  33.6546  34.6135  34.7883  35.0222  37.8935  38.1945

          k = 0.3333 0.5773 0.0000 (  9957 PWs)   bands (ev):

   -77.6095 -77.6094 -77.6030 -40.9289 -40.9288 -40.9146 -40.9145 -40.9077
   -40.8764 -40.8700 -40.8498 -40.8497  -4.9660  -4.9330  -4.8617  -4.8617
    -4.8387  -4.8386  -4.8026  -4.7360  -4.7360  -4.7082  -4.7082  -4.6956
    -4.6661  -4.6661  -4.6545   7.5618   7.5621   8.2040  13.3634  13.5760
    13.5761  13.8586  13.8586  14.6105  14.6105  14.6835  14.7959  15.6988
    15.6990  15.7918  15.7921  16.1716  16.5815  17.7278  18.0066  18.0070
    18.4580  18.4585  18.9713  19.7380  19.7380  20.7475  23.0413  23.4245
    23.4253  24.6652  25.2074  25.8472  25.8475  26.7541  26.7547  26.8914
    26.8922  28.0364  32.0554  32.0558  32.5250  32.5602  33.0043  33.0044
    33.1226  33.2465  33.2467  34.4637  34.4637  34.8012  38.2571  38.8095

          k = 0.3472 0.5532 0.0000 (  9967 PWs)   bands (ev):

   -77.6097 -77.6091 -77.6030 -40.9315 -40.9262 -40.9149 -40.9142 -40.9077
   -40.8763 -40.8702 -40.8510 -40.8484  -4.9657  -4.9330  -4.8663  -4.8572
    -4.8402  -4.8374  -4.8022  -4.7376  -4.7346  -4.7084  -4.7080  -4.6956
    -4.6662  -4.6661  -4.6547   7.4616   7.6397   8.2366  13.2887  13.5753
    13.6429  13.8310  13.8860  14.5858  14.6335  14.6843  14.7975  15.6522
    15.7437  15.7666  15.8154  16.1743  16.5792  17.7163  17.9175  18.1241
    18.3405  18.5538  19.0022  19.7116  19.7594  20.7652  22.9837  23.2071
    23.6219  24.6294  25.2040  25.7857  25.9550  26.6664  26.7280  26.8876
    27.0725  28.0936  31.9522  32.0152  32.4488  32.4694  32.9085  32.9689
    33.1251  33.3207  33.4436  34.4635  34.5575  34.9046  38.0313  38.6922

          k = 0.3611 0.5292 0.0000 (  9985 PWs)   bands (ev):

   -77.6100 -77.6088 -77.6030 -40.9342 -40.9236 -40.9152 -40.9139 -40.9077
   -40.8761 -40.8708 -40.8523 -40.8467  -4.9649  -4.9331  -4.8711  -4.8526
    -4.8423  -4.8361  -4.8008  -4.7393  -4.7332  -4.7087  -4.7079  -4.6958
    -4.6663  -4.6661  -4.6552   7.3698   7.6615   8.3363  13.1459  13.5717
    13.7627  13.8044  13.9122  14.5626  14.6522  14.6865  14.8024  15.6054
    15.7428  15.7856  15.8329  16.1828  16.5716  17.6717  17.8875  18.2305
    18.2482  18.5884  19.1035  19.6936  19.7655  20.8151  22.8613  22.9476
    23.7868  24.5215  25.1848  25.8053  25.9806  26.6650  26.6706  27.0247
    27.2926  28.2368  31.7816  31.8319  32.2669  32.3337  32.6828  32.8632
    33.0785  33.6036  33.7974  34.4128  34.8175  35.1906  37.5538  38.2679

          k = 0.3750 0.5051 0.0000 (  9981 PWs)   bands (ev):

   -77.6103 -77.6086 -77.6030 -40.9367 -40.9211 -40.9155 -40.9137 -40.9077
   -40.8757 -40.8717 -40.8535 -40.8450  -4.9635  -4.9332  -4.8762  -4.8479
    -4.8446  -4.8349  -4.7988  -4.7413  -4.7318  -4.7090  -4.7078  -4.6960
    -4.6665  -4.6661  -4.6560   7.2866   7.6450   8.4850  12.9803  13.5659
    13.7790  13.8892  13.9372  14.5412  14.6665  14.6896  14.8104  15.5585
    15.7209  15.8251  15.8443  16.1971  16.5582  17.6105  17.9010  18.1283
    18.3767  18.5807  19.2563  19.6862  19.7613  20.8888  22.6766  22.7008
    23.8899  24.3531  25.1497  25.8162  25.9138  26.7393  26.8286  27.1657
    27.5458  28.4378  31.5415  31.5973  32.1264  32.1356  32.3967  32.7416
    33.0286  33.9570  34.1978  34.3360  35.1723  35.5558  37.0216  37.7918

          k = 0.3889 0.4811 0.0000 (  9979 PWs)   bands (ev):

   -77.6105 -77.6083 -77.6030 -40.9390 -40.9187 -40.9157 -40.9134 -40.9077
   -40.8753 -40.8728 -40.8546 -40.8433  -4.9615  -4.9333  -4.8814  -4.8471
    -4.8433  -4.8338  -4.7963  -4.7434  -4.7305  -4.7093  -4.7078  -4.6964
    -4.6668  -4.6662  -4.6571   7.2120   7.6116   8.6605  12.8010  13.5583
    13.7554  13.9605  14.0134  14.5221  14.6765  14.6933  14.8214  15.5119
    15.7008  15.8502  15.8630  16.2164  16.5389  17.5552  17.9344  18.0342
    18.5061  18.5557  19.4344  19.6922  19.7529  20.9730  22.4168  22.5118
    23.9378  24.1439  25.0966  25.5704  26.0963  26.8703  27.0934  27.3096
    27.8278  28.6841  31.2572  31.3494  31.8910  32.0286  32.0853  32.6359
    32.9827  34.2454  34.3342  34.6176  35.5749  35.9236  36.4803  37.3519

          k = 0.4028 0.4570 0.0000 (  9995 PWs)   bands (ev):

   -77.6108 -77.6081 -77.6030 -40.9411 -40.9164 -40.9160 -40.9132 -40.9077
   -40.8748 -40.8740 -40.8558 -40.8416  -4.9591  -4.9334  -4.8868  -4.8495
    -4.8389  -4.8328  -4.7934  -4.7458  -4.7292  -4.7096  -4.7078  -4.6968
    -4.6671  -4.6663  -4.6582   7.1461   7.5732   8.8494  12.6122  13.5497
    13.7338  13.9820  14.1312  14.5054  14.6825  14.6973  14.8353  15.4661
    15.6828  15.8516  15.8998  16.2394  16.5143  17.5123  17.9486  17.9783
    18.5258  18.6314  19.6242  19.7158  19.7457  21.0467  22.1926  22.3015
    23.9124  23.9493  25.0014  25.3410  26.3268  27.0410  27.3893  27.4556
    28.1345  28.9692  30.9549  31.1030  31.6220  31.7650  31.9558  32.5475
    32.9419  34.1383  34.7176  35.0476  35.9305  36.0168  36.1592  37.0842

          k = 0.4166 0.4330 0.0000 (  9987 PWs)   bands (ev):

   -77.6110 -77.6079 -77.6030 -40.9430 -40.9162 -40.9142 -40.9129 -40.9077
   -40.8752 -40.8742 -40.8569 -40.8401  -4.9562  -4.9335  -4.8923  -4.8518
    -4.8347  -4.8319  -4.7902  -4.7484  -4.7279  -4.7099  -4.7078  -4.6973
    -4.6674  -4.6665  -4.6594   7.0889   7.5354   9.0440  12.4180  13.5405
    13.7146  14.0013  14.2402  14.4910  14.6850  14.7013  14.8517  15.4216
    15.6670  15.8499  15.9360  16.2643  16.4855  17.4819  17.8721  18.0288
    18.4961  18.7466  19.7441  19.7626  19.8184  21.0745  22.0409  22.0763
    23.6725  23.9417  24.8154  25.2011  26.5804  27.2392  27.6018  27.6914
    28.4607  29.2870  30.6475  30.8653  31.3471  31.4449  31.8984  32.4704
    32.9063  34.0057  35.0970  35.4219  35.4828  36.0345  36.4464  37.2239

          k = 0.4305 0.4089 0.0000 (  9993 PWs)   bands (ev):

   -77.6111 -77.6077 -77.6030 -40.9447 -40.9164 -40.9128 -40.9123 -40.9077
   -40.8764 -40.8736 -40.8579 -40.8387  -4.9529  -4.9336  -4.8978  -4.8538
    -4.8311  -4.8309  -4.7868  -4.7512  -4.7267  -4.7102  -4.7078  -4.6979
    -4.6677  -4.6668  -4.6604   7.0404   7.5012   9.2383  12.2230  13.5316
    13.6979  14.0181  14.3380  14.4790  14.6844  14.7051  14.8700  15.3792
    15.6534  15.8465  15.9716  16.2892  16.4540  17.4617  17.8052  18.0826
    18.4691  18.8449  19.7517  19.8380  20.0112  21.0200  21.8421  21.9990
    23.4351  23.9261  24.5653  25.1351  26.8384  27.4564  27.7455  27.9914
    28.7982  29.6277  30.3415  30.6419  31.0808  31.1333  31.8525  32.3988
    32.8760  33.8337  34.9270  35.4633  35.7329  35.9187  36.8932  37.6002

          k = 0.4444 0.3849 0.0000 ( 10005 PWs)   bands (ev):

   -77.6113 -77.6076 -77.6030 -40.9461 -40.9165 -40.9126 -40.9106 -40.9077
   -40.8776 -40.8730 -40.8589 -40.8376  -4.9493  -4.9336  -4.9033  -4.8555
    -4.8304  -4.8275  -4.7833  -4.7542  -4.7256  -4.7104  -4.7079  -4.6985
    -4.6680  -4.6673  -4.6613   7.0007   7.4720   9.4261  12.0337  13.5234
    13.6841  14.0323  14.4231  14.4693  14.6809  14.7084  14.8893  15.3400
    15.6422  15.8424  16.0061  16.3125  16.4215  17.4491  17.7487  18.1363
    18.4460  18.9219  19.7713  19.9453  20.1963  20.8908  21.6039  22.0590
    23.2102  23.9089  24.3048  25.0973  27.0861  27.6867  27.8828  28.2869
    29.1334  29.9667  30.0410  30.4382  30.8376  30.8494  31.8160  32.3272
    32.8513  33.6090  34.4702  35.4485  35.8054  36.3488  37.3394  38.0314

          k = 0.4583 0.3608 0.0000 ( 10017 PWs)   bands (ev):

   -77.6114 -77.6075 -77.6030 -40.9472 -40.9166 -40.9125 -40.9091 -40.9077
   -40.8786 -40.8725 -40.8597 -40.8366  -4.9456  -4.9335  -4.9087  -4.8569
    -4.8298  -4.8248  -4.7798  -4.7573  -4.7247  -4.7106  -4.7079  -4.6990
    -4.6682  -4.6678  -4.6619   6.9698   7.4487   9.5987  11.8590  13.5165
    13.6732  14.0436  14.4618  14.4943  14.6744  14.7112  14.9083  15.3055
    15.6334  15.8384  16.0385  16.3326  16.3899  17.4419  17.7035  18.1854
    18.4275  18.9768  19.8042  20.0835  20.3650  20.7308  21.3663  22.1759
    23.0087  23.8935  24.0580  25.0723  27.3094  27.9241  28.0074  28.5780
    29.4419  29.7504  30.1843  30.2614  30.6387  30.7026  31.7882  32.2498
    32.8319  33.3303  34.0708  35.2319  36.1086  36.7625  37.7760  38.4671

          k = 0.4722 0.3368 0.0000 ( 10022 PWs)   bands (ev):

   -77.6115 -77.6074 -77.6030 -40.9480 -40.9167 -40.9124 -40.9080 -40.9077
   -40.8794 -40.8720 -40.8603 -40.8360  -4.9421  -4.9332  -4.9136  -4.8580
    -4.8295  -4.8228  -4.7764  -4.7604  -4.7240  -4.7108  -4.7079  -4.6994
    -4.6683  -4.6683  -4.6622   6.9478   7.4318   9.7437  11.7121  13.5113
    13.6653  14.0518  14.4565  14.5513  14.6644  14.7133  14.9250  15.2776
    15.6271  15.8352  16.0666  16.3480  16.3621  17.4380  17.6704  18.2254
    18.4141  19.0122  19.8487  20.2470  20.5050  20.5771  21.1344  22.3083
    22.8444  23.8432  23.8816  25.0557  27.4922  28.1101  28.1595  28.8641
    29.4776  29.6795  30.0538  30.1211  30.5175  30.9012  31.7686  32.1645
    32.8181  33.0206  33.7555  35.0890  36.3531  37.1373  38.1861  38.8765

          k = 0.4861 0.3127 0.0000 ( 10010 PWs)   bands (ev):

   -77.6115 -77.6074 -77.6030 -40.9484 -40.9168 -40.9124 -40.9077 -40.9073
   -40.8799 -40.8717 -40.8607 -40.8356  -4.9396  -4.9324  -4.9176  -4.8586
    -4.8292  -4.8215  -4.7733  -4.7632  -4.7235  -4.7109  -4.7080  -4.6997
    -4.6687  -4.6684  -4.6624   6.9345   7.4216   9.8436  11.6109  13.5081
    13.6605  14.0568  14.4534  14.5946  14.6495  14.7145  14.9367  15.2591
    15.6232  15.8331  16.0867  16.3420  16.3578  17.4362  17.6502  18.2516
    18.4059  19.0317  19.8943  20.4232  20.4596  20.6000  20.9184  22.4183
    22.7345  23.6867  23.8742  25.0461  27.6149  28.1793  28.3685  29.1376
    29.2464  29.7985  29.8032  30.0291  30.4971  31.1788  31.7569  32.0851
    32.7392  32.8098  33.5533  35.0101  36.5149  37.4252  38.5257  39.2070

          k = 0.5000 0.2887 0.0000 ( 10026 PWs)   bands (ev):

   -77.6115 -77.6073 -77.6030 -40.9486 -40.9168 -40.9123 -40.9077 -40.9070
   -40.8801 -40.8716 -40.8609 -40.8354  -4.9387  -4.9318  -4.9193  -4.8588
    -4.8292  -4.8211  -4.7717  -4.7647  -4.7234  -4.7109  -4.7080  -4.6998
    -4.6688  -4.6685  -4.6625   6.9301   7.4181   9.8797  11.5743  13.5070
    13.6589  14.0584  14.4523  14.6216  14.6320  14.7150  14.9410  15.2526
    15.6220  15.8323  16.0942  16.3344  16.3611  17.4357  17.6434  18.2607
    18.4032  19.0378  19.9158  20.4131  20.5419  20.6341  20.7867  22.4630
    22.6954  23.6270  23.8717  25.0429  27.6586  28.2040  28.4693  29.1382
    29.3111  29.6328  29.8243  29.9969  30.5123  31.3092  31.7530  32.0497
    32.6108  32.8071  33.4839  34.9850  36.5719  37.5404  38.6766  39.3474

          k = 0.4583 0.2646 0.0000 ( 10008 PWs)   bands (ev):

   -77.6117 -77.6072 -77.6030 -40.9494 -40.9169 -40.9122 -40.9077 -40.9070
   -40.8810 -40.8709 -40.8599 -40.8354  -4.9386  -4.9310  -4.9187  -4.8585
    -4.8298  -4.8211  -4.7710  -4.7651  -4.7234  -4.7112  -4.7082  -4.6997
    -4.6713  -4.6665  -4.6632   6.7991   7.5702   9.8840  11.5862  13.4965
    13.6514  14.0604  14.4334  14.6220  14.6420  14.7237  14.9376  15.2409
    15.5993  15.8562  16.1005  16.3415  16.3611  17.4319  17.5643  18.2301
    18.5003  19.0817  19.7548  20.2755  20.6395  20.6820  20.9060  22.4370
    22.7013  23.6291  23.6821  25.4119  27.5597  27.8139  28.8706  28.9409
    28.9760  29.7521  30.1760  30.2158  30.3382  31.3793  31.5136  31.7394
    32.8117  33.2127  33.3692  35.2543  36.4964  37.6259  38.4864  39.4529

          k = 0.4167 0.2406 0.0000 (  9988 PWs)   bands (ev):

   -77.6120 -77.6068 -77.6030 -40.9516 -40.9173 -40.9118 -40.9077 -40.9068
   -40.8834 -40.8689 -40.8576 -40.8353  -4.9387  -4.9288  -4.9170  -4.8577
    -4.8317  -4.8213  -4.7692  -4.7661  -4.7234  -4.7123  -4.7090  -4.6995
    -4.6745  -4.6654  -4.6648   6.5725   7.8592   9.8969  11.6219  13.4669
    13.6305  14.0651  14.3848  14.6227  14.6633  14.7494  14.9263  15.2069
    15.5492  15.9097  16.1184  16.3608  16.3612  17.3960  17.4203  18.1548
    18.7214  19.1929  19.4539  20.0499  20.6569  20.9210  21.0655  22.2700
    22.7186  23.4087  23.8476  26.1125  27.3172  27.3354  28.4937  28.5764
    29.3613  29.9886  30.0893  30.6449  30.7053  30.7827  31.1678  31.9205
    33.0857  33.1907  33.9261  35.8704  36.3243  37.8241  38.1474  39.3450

          k = 0.3750 0.2165 0.0000 (  9984 PWs)   bands (ev):

   -77.6126 -77.6063 -77.6030 -40.9548 -40.9179 -40.9113 -40.9077 -40.9065
   -40.8865 -40.8658 -40.8547 -40.8351  -4.9389  -4.9251  -4.9139  -4.8564
    -4.8341  -4.8215  -4.7677  -4.7672  -4.7229  -4.7140  -4.7103  -4.6993
    -4.6782  -4.6688  -4.6633   6.3455   8.1882   9.9193  11.6807  13.4227
    13.6004  14.0699  14.3170  14.6224  14.6847  14.7898  14.9038  15.1535
    15.4916  15.9730  16.1458  16.3613  16.3872  17.2100  17.4003  18.0613
    18.9899  19.1403  19.3180  19.8573  20.6909  21.1039  21.1366  21.9657
    22.7470  23.5179  24.1206  26.8739  26.8801  27.0141  28.0330  28.1930
    29.6173  29.6845  30.4218  30.4764  30.5240  31.1361  31.2440  32.3928
    33.0111  33.3977  34.7048  36.1242  36.6299  37.7835  38.0545  38.7692

          k = 0.3333 0.1925 0.0000 (  9990 PWs)   bands (ev):

   -77.6131 -77.6057 -77.6030 -40.9587 -40.9185 -40.9107 -40.9077 -40.9063
   -40.8898 -40.8621 -40.8516 -40.8349  -4.9394  -4.9202  -4.9096  -4.8546
    -4.8365  -4.8217  -4.7699  -4.7662  -4.7214  -4.7165  -4.7125  -4.6989
    -4.6822  -4.6733  -4.6620   6.1353   8.5356   9.9530  11.7616  13.3693
    13.5655  14.0725  14.2348  14.6190  14.7015  14.8416  14.8658  15.0841
    15.4340  16.0378  16.1793  16.3615  16.4137  17.0326  17.3715  17.9669
    18.8519  19.2697  19.3226  19.8263  20.7510  20.8874  21.3046  21.8128
    22.7857  23.8399  24.4904  26.4348  26.7005  27.3982  27.8223  27.8398
    29.2101  29.3782  29.9059  30.7553  30.9408  31.6577  31.7332  32.8980
    32.9507  33.6822  35.5029  35.9341  37.3698  37.4077  37.9041  38.0939

          k = 0.2917 0.1684 0.0000 ( 10010 PWs)   bands (ev):

   -77.6137 -77.6052 -77.6030 -40.9629 -40.9191 -40.9101 -40.9077 -40.9061
   -40.8931 -40.8581 -40.8487 -40.8345  -4.9403  -4.9140  -4.9041  -4.8524
    -4.8386  -4.8217  -4.7725  -4.7668  -4.7200  -4.7186  -4.7157  -4.6985
    -4.6863  -4.6783  -4.6609   5.9468   8.8882  10.0031  11.8628  13.3111
    13.5294  14.0718  14.1413  14.6080  14.7109  14.8097  14.9006  15.0036
    15.3796  16.1005  16.2150  16.3617  16.4328  16.8728  17.3354  17.8789
    18.6072  19.1459  19.5340  19.9939  20.5251  20.8536  21.4262  21.8314
    22.8333  24.2727  24.9362  26.0186  26.4035  27.0803  27.4745  28.2803
    28.6289  29.1016  29.5509  31.3020  31.4349  32.0786  32.1989  33.0515
    33.4193  33.9794  35.7278  36.3403  36.7696  36.9233  37.5237  38.3410

          k = 0.2500 0.1443 0.0000 ( 10012 PWs)   bands (ev):

   -77.6142 -77.6047 -77.6030 -40.9670 -40.9196 -40.9095 -40.9077 -40.9059
   -40.8961 -40.8540 -40.8462 -40.8339  -4.9413  -4.9069  -4.8978  -4.8499
    -4.8400  -4.8213  -4.7754  -4.7692  -4.7243  -4.7202  -4.7148  -4.6981
    -4.6900  -4.6835  -4.6599   5.7817   9.2256  10.0836  11.9821  13.2500
    13.4948  14.0404  14.0682  14.5815  14.6948  14.7518  14.9197  14.9623
    15.3303  16.1587  16.2491  16.3621  16.4378  16.7345  17.2968  17.7980
    18.4149  18.8971  19.7557  20.0867  20.3461  21.0210  21.5107  21.9027
    22.8880  24.7641  25.4217  25.6230  26.1509  26.7046  27.1553  28.0554
    28.0814  28.8610  29.9696  31.8840  31.9414  32.2160  32.7529  33.3526
    33.9276  34.2700  35.5716  36.0226  36.1159  37.1228  37.1916  38.5613

          k = 0.2083 0.1203 0.0000 ( 10008 PWs)   bands (ev):

   -77.6147 -77.6042 -77.6030 -40.9708 -40.9201 -40.9090 -40.9077 -40.9057
   -40.8988 -40.8503 -40.8442 -40.8332  -4.9425  -4.8993  -4.8912  -4.8472
    -4.8407  -4.8204  -4.7786  -4.7729  -4.7297  -4.7260  -4.7104  -4.6978
    -4.6931  -4.6883  -4.6590   5.6412   9.5086  10.2262  12.1156  13.1835
    13.4636  13.9389  14.0622  14.5264  14.6054  14.7406  14.8465  15.0224
    15.2872  16.2106  16.2782  16.3626  16.4259  16.6190  17.2633  17.7177
    18.2747  18.6279  19.8695  19.9161  20.5969  21.2682  21.5680  21.9898
    22.9470  25.2426  25.2684  25.7330  26.1407  26.3646  26.8698  27.5237
    27.5716  28.6632  30.7563  32.2529  32.4419  32.4701  33.3121  33.7276
    34.2961  34.3777  35.4006  35.4383  35.5873  36.9651  37.7618  38.4356

          k = 0.1667 0.0962 0.0000 ( 10010 PWs)   bands (ev):

   -77.6151 -77.6038 -77.6030 -40.9742 -40.9206 -40.9086 -40.9077 -40.9056
   -40.9011 -40.8470 -40.8427 -40.8323  -4.9437  -4.8914  -4.8849  -4.8445
    -4.8406  -4.8188  -4.7817  -4.7773  -4.7358  -4.7327  -4.7060  -4.6974
    -4.6955  -4.6923  -4.6581   5.5257   9.6943  10.4641  12.2580  13.1031
    13.4369  13.8479  14.0551  14.4338  14.4823  14.7412  14.7966  15.0769
    15.2509  16.2546  16.2995  16.3635  16.4002  16.5268  17.2407  17.6262
    18.1787  18.3858  19.6966  20.0180  20.8980  21.5892  21.6058  22.0848
    23.0066  24.8682  25.6107  25.6885  26.0901  26.6083  26.6230  27.0542
    27.1151  28.5197  31.5355  32.3377  32.8891  33.0394  33.8653  33.8906
    34.0927  34.1462  35.3367  35.4076  35.6991  36.8090  38.0513  38.0781

          k = 0.1250 0.0722 0.0000 ( 10000 PWs)   bands (ev):

   -77.6154 -77.6035 -77.6030 -40.9769 -40.9209 -40.9082 -40.9077 -40.9055
   -40.9030 -40.8442 -40.8416 -40.8315  -4.9447  -4.8838  -4.8793  -4.8419
    -4.8399  -4.8164  -4.7846  -4.7817  -4.7422  -4.7399  -4.7022  -4.6973
    -4.6972  -4.6955  -4.6575   5.4355   9.7940  10.7717  12.4005  12.9970
    13.4155  13.7819  14.0479  14.3146  14.3464  14.7423  14.7684  15.1224
    15.2221  16.2893  16.3120  16.3650  16.3689  16.4571  17.2295  17.5174
    18.1162  18.2120  19.5816  20.0781  21.1901  21.6299  21.9641  22.1862
    23.0621  24.4886  25.4612  25.7196  25.9565  26.4210  26.6668  26.9898
    27.1017  28.4558  31.9331  32.8028  33.0051  33.2805  33.5628  33.8181
    34.3932  34.4307  35.2752  35.7946  36.1262  36.7298  37.7246  38.1227

          k = 0.0833 0.0481 0.0000 ( 10018 PWs)   bands (ev):

   -77.6157 -77.6032 -77.6029 -40.9789 -40.9212 -40.9080 -40.9077 -40.9055
   -40.9043 -40.8422 -40.8410 -40.8307  -4.9455  -4.8775  -4.8750  -4.8398
    -4.8390  -4.8135  -4.7870  -4.7855  -4.7479  -4.7465  -4.6993  -4.6985
    -4.6977  -4.6970  -4.6570   5.3710   9.8463  11.0871  12.5292  12.8614
    13.4000  13.7518  14.0419  14.1939  14.2141  14.7429  14.7533  15.1564
    15.2013  16.3136  16.3164  16.3408  16.3673  16.4088  17.2263  17.4086
    18.0780  18.1121  19.5094  20.1117  21.4362  21.6443  22.2912  22.3727
    23.1078  24.0941  25.3477  25.5287  25.7358  26.2700  26.3792  27.2631
    27.4717  28.5198  31.9895  32.5571  32.6935  33.5601  33.9922  34.0678
    34.7027  34.8603  35.2650  36.1360  36.5908  36.7499  37.3830  37.9762

          k = 0.0417 0.0241 0.0000 ( 10023 PWs)   bands (ev):

   -77.6158 -77.6031 -77.6029 -40.9802 -40.9213 -40.9078 -40.9077 -40.9055
   -40.9052 -40.8410 -40.8407 -40.8302  -4.9460  -4.8731  -4.8724  -4.8383
    -4.8381  -4.8109  -4.7886  -4.7882  -4.7519  -4.7515  -4.6992  -4.6990
    -4.6974  -4.6968  -4.6567   5.3323   9.8726  11.3431  12.6232  12.7237
    13.3905  13.7530  14.0378  14.1012  14.1090  14.7433  14.7457  15.1774
    15.1887  16.3161  16.3220  16.3270  16.3700  16.3806  17.2265  17.3305
    18.0575  18.0647  19.4696  20.1286  21.5986  21.6519  22.3831  22.7972
    23.1381  23.6836  25.2780  25.3394  25.5616  26.1762  26.2034  27.5645
    27.6464  28.6993  31.9712  32.1146  32.2892  34.2090  34.2659  34.3486
    34.9432  35.2030  35.3034  36.3365  36.8042  36.9008  37.1443  37.6593

          k = 0.0000 0.0000 0.0000 ( 10021 PWs)   bands (ev):

   -77.6158 -77.6030 -77.6029 -40.9806 -40.9214 -40.9078 -40.9077 -40.9055
   -40.9054 -40.8406 -40.8406 -40.8301  -4.9462  -4.8715  -4.8715  -4.8378
    -4.8378  -4.8098  -4.7891  -4.7891  -4.7534  -4.7534  -4.6994  -4.6994
    -4.6968  -4.6968  -4.6565   5.3194   9.8807  11.4491  12.6585  12.6586
    13.3874  13.7605  14.0364  14.0658  14.0659  14.7433  14.7434  15.1844
    15.1845  16.3153  16.3154  16.3311  16.3713  16.3714  17.2269  17.3026
    18.0510  18.0511  19.4569  20.1337  21.6543  21.6544  22.4225  23.1487
    23.1488  23.3374  25.2546  25.2546  25.5086  26.1443  26.1444  27.6877
    27.6877  28.8031  31.9349  31.9350  32.1648  34.3554  34.4612  34.4613
    35.0914  35.3335  35.3335  36.4222  36.7823  36.7823  37.3253  37.5784

          k = 0.0000 0.0000 0.0516 ( 10021 PWs)   bands (ev):

   -77.6158 -77.6030 -77.6029 -40.9806 -40.9214 -40.9078 -40.9077 -40.9055
   -40.9054 -40.8406 -40.8406 -40.8301  -4.9459  -4.8715  -4.8715  -4.8381
    -4.8380  -4.8094  -4.7899  -4.7899  -4.7531  -4.7531  -4.6990  -4.6990
    -4.6968  -4.6968  -4.6564   5.3341   9.8682  11.4390  12.6747  12.6748
    13.4097  13.5906  14.0704  14.0705  14.1632  14.7432  14.7432  15.1851
    15.1852  16.3154  16.3155  16.3303  16.3699  16.3700  17.2269  17.3049
    18.0280  18.0281  19.5337  20.0718  21.6066  21.6067  22.1055  23.0117
    23.0119  23.6785  25.4349  25.4350  25.6163  26.1900  26.1901  27.7433
    27.7433  28.8214  31.9338  31.9339  32.1655  34.3359  34.4053  34.4053
    35.0956  35.3055  35.3055  36.2956  36.7957  36.7957  37.2586  37.3855

          k = 0.0000 0.0000 0.1033 ( 10003 PWs)   bands (ev):

   -77.6158 -77.6030 -77.6029 -40.9806 -40.9214 -40.9078 -40.9077 -40.9055
   -40.9054 -40.8406 -40.8406 -40.8301  -4.9450  -4.8713  -4.8713  -4.8388
    -4.8388  -4.8083  -4.7921  -4.7921  -4.7522  -4.7522  -4.6977  -4.6977
    -4.6969  -4.6969  -4.6561   5.3782   9.8287  11.4107  12.7233  12.7234
    13.3083  13.4750  14.0839  14.0840  14.3264  14.7429  14.7429  15.1871
    15.1872  16.3157  16.3158  16.3280  16.3657  16.3658  17.2270  17.3063
    17.9585  17.9585  19.7274  19.9357  21.4723  21.4724  21.5708  22.6982
    22.6983  24.2854  25.8788  25.8789  25.9229  26.3179  26.3180  27.9103
    27.9103  28.8762  31.9307  31.9307  32.1670  34.2345  34.2345  34.2788
    35.1081  35.2269  35.2269  35.9690  36.8330  36.8330  36.9791  37.0997

          k = 0.0000 0.0000 0.1549 (  9991 PWs)   bands (ev):

   -77.6158 -77.6030 -77.6029 -40.9805 -40.9215 -40.9078 -40.9077 -40.9055
   -40.9054 -40.8406 -40.8406 -40.8301  -4.9436  -4.8710  -4.8709  -4.8399
    -4.8399  -4.8066  -4.7955  -4.7955  -4.7508  -4.7508  -4.6970  -4.6970
    -4.6958  -4.6958  -4.6556   5.4515   9.7565  11.3682  12.8036  12.8037
    13.0129  13.5784  14.1053  14.1054  14.4541  14.7421  14.7422  15.1909
    15.1910  16.3161  16.3162  16.3242  16.3591  16.3591  17.2270  17.2959
    17.8416  17.8417  19.6055  20.1849  21.0218  21.2730  21.2731  22.3374
    22.3375  24.9539  26.3905  26.4570  26.4571  26.5074  26.5074  28.1874
    28.1874  28.9671  31.9261  31.9261  32.1676  33.9488  33.9488  34.1876
    35.1107  35.1107  35.1282  35.5327  36.3644  36.8876  36.8877  36.9009

          k = 0.0000 0.0000 0.2066 (  9960 PWs)   bands (ev):

   -77.6158 -77.6030 -77.6029 -40.9805 -40.9215 -40.9078 -40.9077 -40.9055
   -40.9055 -40.8406 -40.8406 -40.8301  -4.9417  -4.8705  -4.8705  -4.8413
    -4.8413  -4.8043  -4.7997  -4.7997  -4.7490  -4.7490  -4.6972  -4.6972
    -4.6936  -4.6936  -4.6550   5.5536   9.6438  11.3170  12.7367  12.9149
    12.9150  13.7136  14.1331  14.1332  14.5478  14.7409  14.7409  15.1970
    15.1971  16.3164  16.3165  16.3193  16.3506  16.3507  17.2270  17.2634
    17.6775  17.6776  19.3313  20.4897  20.6789  21.0339  21.0340  21.9926
    21.9927  25.6514  26.7392  26.7393  26.9791  27.1045  27.1046  28.5682
    28.5683  29.0935  31.9212  31.9212  32.1627  33.5649  33.5649  34.0634
    34.9713  34.9713  35.0473  35.1551  35.5491  36.8130  36.8130  36.9534

          k = 0.0000 0.0000 0.2582 (  9954 PWs)   bands (ev):

   -77.6158 -77.6030 -77.6029 -40.9805 -40.9216 -40.9078 -40.9076 -40.9055
   -40.9055 -40.8406 -40.8406 -40.8301  -4.9396  -4.8701  -4.8700  -4.8430
    -4.8430  -4.8044  -4.8044  -4.8017  -4.7468  -4.7468  -4.6975  -4.6975
    -4.6911  -4.6911  -4.6543   5.6839   9.4835  11.2621  12.5020  13.0557
    13.0558  13.8739  14.1653  14.1654  14.6159  14.7389  14.7389  15.2060
    15.2061  16.3136  16.3163  16.3164  16.3409  16.3410  17.2017  17.2271
    17.4686  17.4687  19.0574  19.9840  20.7774  20.7776  21.2788  21.6900
    21.6901  26.3664  27.0027  27.0027  27.6563  27.7899  27.7900  29.0407
    29.0407  29.2547  31.9180  31.9180  32.1399  33.1121  33.1121  33.8859
    34.5443  34.7031  34.8201  34.8201  35.1876  36.8208  36.8208  37.0262

          k = 0.0000 0.0000 0.3099 (  9972 PWs)   bands (ev):

   -77.6158 -77.6030 -77.6029 -40.9804 -40.9217 -40.9078 -40.9076 -40.9055
   -40.9055 -40.8406 -40.8406 -40.8301  -4.9373  -4.8695  -4.8695  -4.8448
    -4.8448  -4.8092  -4.8092  -4.7988  -4.7443  -4.7443  -4.6980  -4.6980
    -4.6888  -4.6888  -4.6535   5.8416   9.2733  11.2079  12.3214  13.2242
    13.2243  14.0525  14.1994  14.1995  14.6665  14.7356  14.7356  15.2183
    15.2184  16.3075  16.3151  16.3151  16.3307  16.3308  17.1074  17.2214
    17.2215  17.2272  18.8155  19.5104  20.5219  20.5220  21.4387  21.4388
    21.9585  27.0898  27.2940  27.2940  28.3970  28.4929  28.4930  29.4496
    29.5895  29.5896  31.9200  31.9201  32.0587  32.6190  32.6190  33.5019
    34.0405  34.0835  34.6645  34.6645  35.2242  36.9014  36.9014  37.0348

          k = 0.0000 0.0000 0.3615 (  9936 PWs)   bands (ev):

   -77.6158 -77.6031 -77.6029 -40.9804 -40.9218 -40.9077 -40.9076 -40.9055
   -40.9055 -40.8406 -40.8406 -40.8301  -4.9350  -4.8690  -4.8690  -4.8465
    -4.8465  -4.8139  -4.8139  -4.7960  -4.7417  -4.7417  -4.6986  -4.6986
    -4.6866  -4.6866  -4.6527   6.0252   9.0186  11.1576  12.1960  13.4175
    13.4176  14.2328  14.2329  14.2418  14.7057  14.7301  14.7301  15.2337
    15.2338  16.3015  16.3109  16.3110  16.3208  16.3209  16.9479  16.9480
    16.9835  17.2272  18.6219  19.0743  20.2814  20.2815  21.2392  21.2392
    22.6998  27.6128  27.6128  27.8105  29.1775  29.1935  29.1936  29.6768
    30.1996  30.1997  31.7786  31.9340  31.9340  32.1066  32.1066  32.9459
    33.5451  33.8343  34.5068  34.5068  35.2632  36.8791  37.0334  37.0334

          k = 0.0000 0.0000 0.4132 (  9966 PWs)   bands (ev):

   -77.6158 -77.6031 -77.6029 -40.9803 -40.9218 -40.9077 -40.9076 -40.9055
   -40.9055 -40.8406 -40.8406 -40.8301  -4.9329  -4.8685  -4.8684  -4.8481
    -4.8481  -4.8181  -4.8181  -4.7933  -4.7391  -4.7391  -4.6994  -4.6994
    -4.6847  -4.6847  -4.6519   6.2325   8.7315  11.1138  12.1181  13.6313
    13.6314  14.2631  14.2632  14.4328  14.7207  14.7207  14.7373  15.2513
    15.2514  16.2958  16.2969  16.2970  16.3117  16.3118  16.6692  16.6693
    16.8418  17.2273  18.4796  18.6833  20.0678  20.0679  21.0872  21.0873
    23.4874  27.9591  27.9592  28.5117  29.8640  29.8641  29.9349  29.9448
    30.8566  30.8567  31.1685  31.5892  31.5892  31.9731  31.9731  32.6760
    33.0643  33.6862  34.3444  34.3445  35.3029  36.7055  37.1817  37.1817

          k = 0.0000 0.0000 0.4648 (  9996 PWs)   bands (ev):

   -77.6158 -77.6031 -77.6029 -40.9803 -40.9219 -40.9077 -40.9076 -40.9055
   -40.9055 -40.8406 -40.8406 -40.8301  -4.9311  -4.8680  -4.8680  -4.8495
    -4.8495  -4.8216  -4.8216  -4.7910  -4.7368  -4.7368  -4.7002  -4.7002
    -4.6831  -4.6831  -4.6513   6.4594   8.4281  11.0781  12.0753  13.8590
    13.8590  14.2884  14.2885  14.6136  14.7037  14.7037  14.7633  15.2694
    15.2695  16.2304  16.2305  16.2910  16.3041  16.3042  16.4465  16.4467
    16.7011  17.2273  18.3482  18.3825  19.8904  19.8905  20.9770  20.9771
    24.3060  28.3328  28.3329  29.1658  30.0582  30.2211  30.4563  30.4564
    31.0227  31.0742  31.0742  31.5464  31.5465  32.0651  32.0651  32.6031
    32.6049  33.5709  34.1696  34.1697  35.3427  36.4746  36.9252  36.9253

          k = 0.0000 0.0000 0.5164 (  9966 PWs)   bands (ev):

   -77.6158 -77.6031 -77.6029 -40.9803 -40.9219 -40.9077 -40.9076 -40.9055
   -40.9055 -40.8406 -40.8406 -40.8301  -4.9297  -4.8676  -4.8676  -4.8505
    -4.8505  -4.8243  -4.8243  -4.7892  -4.7348  -4.7348  -4.7009  -4.7009
    -4.6820  -4.6820  -4.6508   6.6966   8.1284  11.0519  12.0551  14.0890
    14.0891  14.3072  14.3073  14.6716  14.6716  14.7675  14.7838  15.2854
    15.2854  16.0434  16.0435  16.2873  16.2984  16.2984  16.3741  16.3743
    16.5820  17.2274  18.0846  18.3212  19.7574  19.7575  20.9028  20.9028
    25.1324  28.7328  28.7328  29.2533  29.7267  30.5306  30.5718  30.5718
    30.8950  30.8950  31.7325  32.1678  32.2392  32.2393  32.2521  32.2521
    32.5994  33.4809  33.9734  33.9734  35.3847  36.1112  36.1387  36.1389

          k = 0.0000 0.0000 0.5681 (  9960 PWs)   bands (ev):

   -77.6158 -77.6031 -77.6029 -40.9802 -40.9220 -40.9077 -40.9076 -40.9055
   -40.9055 -40.8406 -40.8406 -40.8301  -4.9288  -4.8674  -4.8674  -4.8512
    -4.8511  -4.8259  -4.8259  -4.7881  -4.7336  -4.7336  -4.7014  -4.7014
    -4.6813  -4.6813  -4.6505   6.9171   7.8673  11.0358  12.0474  14.3015
    14.3015  14.3187  14.3188  14.6107  14.6108  14.7974  14.8737  15.2964
    15.2965  15.8671  15.8672  16.2850  16.2948  16.2949  16.3598  16.3599
    16.5025  17.2274  17.9128  18.2877  19.6749  19.6750  20.8601  20.8601
    25.9004  28.4520  29.1566  29.1566  30.0852  30.0852  30.1226  30.8464
    31.1301  31.1301  31.7763  32.3513  32.5174  32.5174  32.6549  32.8656
    32.8657  33.4149  33.7667  33.7668  35.4347  35.4356  35.4357  35.6419

          k = 0.0000 0.0000 0.6197 (  9948 PWs)   bands (ev):

   -77.6158 -77.6031 -77.6029 -40.9802 -40.9220 -40.9077 -40.9076 -40.9055
   -40.9055 -40.8406 -40.8406 -40.8301  -4.9285  -4.8673  -4.8673  -4.8514
    -4.8514  -4.8265  -4.8265  -4.7877  -4.7331  -4.7331  -4.7016  -4.7016
    -4.6811  -4.6811  -4.6504   7.0274   7.7429  11.0304  12.0456  14.3226
    14.3227  14.4359  14.4360  14.5352  14.5353  14.8022  14.9120  15.3003
    15.3004  15.7976  15.7978  16.2842  16.2936  16.2937  16.3569  16.3570
    16.4746  17.2274  17.8526  18.2771  19.6469  19.6470  20.8462  20.8462
    26.3097  28.0288  29.5469  29.5469  29.6738  29.6738  30.2686  31.0456
    31.1974  31.1975  31.5518  32.5067  32.6685  32.6685  32.8141  33.1744
    33.1746  33.3807  33.6537  33.6538  35.1002  35.1003  35.3924  35.4729

 ------ SPIN DOWN ----------


          k = 0.0000 0.0000 0.0000 ( 10021 PWs)   bands (ev):

   -77.6158 -77.6030 -77.6029 -40.9806 -40.9214 -40.9078 -40.9077 -40.9054
   -40.9054 -40.8406 -40.8405 -40.8301  -4.9462  -4.8715  -4.8715  -4.8378
    -4.8378  -4.8098  -4.7891  -4.7891  -4.7534  -4.7534  -4.6994  -4.6994
    -4.6968  -4.6968  -4.6565   5.3194   9.8807  11.4491  12.6585  12.6586
    13.3874  13.7605  14.0364  14.0658  14.0659  14.7433  14.7434  15.1844
    15.1845  16.3154  16.3155  16.3312  16.3713  16.3714  17.2269  17.3027
    18.0510  18.0511  19.4569  20.1337  21.6543  21.6544  22.4225  23.1487
    23.1488  23.3374  25.2546  25.2546  25.5086  26.1443  26.1444  27.6877
    27.6877  28.8031  31.9349  31.9350  32.1648  34.3554  34.4612  34.4613
    35.0914  35.3335  35.3335  36.4222  36.7822  36.7823  37.3253  37.5784

          k = 0.0278 0.0481 0.0000 ( 10021 PWs)   bands (ev):

   -77.6158 -77.6031 -77.6029 -40.9800 -40.9213 -40.9079 -40.9077 -40.9054
   -40.9051 -40.8411 -40.8407 -40.8303  -4.9459  -4.8736  -4.8727  -4.8385
    -4.8383  -4.8112  -4.7884  -4.7879  -4.7514  -4.7509  -4.6991  -4.6989
    -4.6976  -4.6968  -4.6567   5.3366   9.8699  11.3106  12.6124  12.7424
    13.3916  13.7514  14.0383  14.1141  14.1207  14.7432  14.7465  15.1751
    15.1901  16.3166  16.3240  16.3257  16.3694  16.3839  17.2264  17.3396
    18.0601  18.0691  19.4739  20.1268  21.5818  21.6492  22.3716  22.7309
    23.1355  23.7472  25.2803  25.3720  25.5785  26.1877  26.2221  27.5181
    27.6402  28.6683  32.0111  32.1172  32.3540  34.1568  34.2350  34.2726
    34.9225  35.1719  35.2859  36.3097  36.7586  36.9730  37.1028  37.6984

          k = 0.0555 0.0962 0.0000 ( 10003 PWs)   bands (ev):

   -77.6156 -77.6033 -77.6029 -40.9784 -40.9211 -40.9081 -40.9077 -40.9055
   -40.9040 -40.8428 -40.8411 -40.8309  -4.9453  -4.8797  -4.8757  -4.8402
    -4.8394  -4.8144  -4.7864  -4.7844  -4.7460  -4.7448  -4.7001  -4.6982
    -4.6971  -4.6970  -4.6571   5.3882   9.8345  10.9892  12.4986  12.9046
    13.4041  13.7511  14.0435  14.2371  14.2488  14.7430  14.7568  15.1473
    15.2069  16.3087  16.3187  16.3458  16.3635  16.4230  17.2266  17.4405
    18.0947  18.1295  19.5278  20.1039  21.3853  21.6089  22.2373  22.2760
    23.1077  24.2093  25.3246  25.6877  25.7638  26.3254  26.4441  27.0798
    27.5126  28.4127  32.2192  32.3442  33.0024  33.5060  33.6626  33.8513
    34.8092  34.8436  35.1552  35.9650  36.4432  37.0464  37.1058  38.1290

          k = 0.0833 0.1443 0.0000 (  9989 PWs)   bands (ev):

   -77.6153 -77.6036 -77.6029 -40.9757 -40.9207 -40.9084 -40.9077 -40.9056
   -40.9021 -40.8456 -40.8418 -40.8319  -4.9442  -4.8890  -4.8797  -4.8424
    -4.8409  -4.8180  -4.7836  -4.7793  -4.7384  -4.7373  -4.7040  -4.6972
    -4.6964  -4.6943  -4.6578   5.4742   9.7675  10.5970  12.3688  13.0525
    13.4248  13.7782  14.0511  14.3545  14.4349  14.7427  14.7789  15.1026
    15.2345  16.2809  16.3170  16.3538  16.3738  16.4908  17.2320  17.5677
    18.1799  18.2507  19.6283  20.0593  21.1087  21.4804  21.7542  22.2482
    23.0925  24.6182  25.3709  25.7705  26.1230  26.5766  26.7575  26.7854
    27.3474  28.1703  32.2520  32.4295  32.9745  33.0539  33.2328  33.8354
    34.5224  34.7828  34.9681  35.3994  36.2268  36.9554  37.1727  38.0826

          k = 0.1111 0.1924 0.0000 ( 10007 PWs)   bands (ev):

   -77.6148 -77.6040 -77.6029 -40.9721 -40.9203 -40.9089 -40.9077 -40.9059
   -40.8996 -40.8494 -40.8427 -40.8332  -4.9430  -4.9002  -4.8837  -4.8446
    -4.8424  -4.8213  -4.7808  -4.7734  -4.7301  -4.7300  -4.7089  -4.6974
    -4.6936  -4.6904  -4.6586   5.5941   9.6609  10.1850  12.2693  13.1688
    13.4531  13.8296  14.0591  14.4388  14.6209  14.7427  14.8227  15.0440
    15.2726  16.2434  16.3028  16.3402  16.4025  16.5891  17.2463  17.6643
    18.3443  18.4587  19.7925  19.9876  20.7902  21.2719  21.2888  22.3234
    23.1162  24.9529  25.2180  25.4240  26.5415  26.9552  26.9652  27.2192
    27.2590  27.9987  31.4727  31.8958  32.4904  33.0540  33.3790  33.9302
    34.2202  34.7506  34.7828  35.5136  36.0466  36.8568  37.2442  37.9839

          k = 0.1389 0.2405 0.0000 ( 10015 PWs)   bands (ev):

   -77.6143 -77.6046 -77.6029 -40.9678 -40.9197 -40.9094 -40.9077 -40.9063
   -40.8963 -40.8539 -40.8439 -40.8347  -4.9417  -4.9122  -4.8868  -4.8462
    -4.8433  -4.8244  -4.7788  -4.7672  -4.7239  -4.7225  -4.7144  -4.6976
    -4.6894  -4.6858  -4.6596   5.7477   9.5115   9.7756  12.2281  13.2620
    13.4886  13.8978  14.0651  14.4751  14.7428  14.7659  14.8970  14.9761
    15.3203  16.1977  16.2683  16.3229  16.4302  16.7195  17.2699  17.7095
    18.5668  18.7741  19.8872  20.0410  20.4541  20.8446  21.0414  22.4666
    23.1951  24.4932  25.2190  25.4851  26.6214  27.1761  27.4520  27.5547
    27.7222  28.0674  30.5996  31.0934  31.7054  33.1749  33.4019  33.9237
    33.9257  34.5213  34.8363  35.8530  36.4587  36.8044  37.3202  37.7209

          k = 0.1666 0.2886 0.0000 ( 10007 PWs)   bands (ev):

   -77.6137 -77.6052 -77.6029 -40.9628 -40.9191 -40.9101 -40.9077 -40.9072
   -40.8925 -40.8589 -40.8454 -40.8364  -4.9409  -4.9236  -4.8886  -4.8471
    -4.8436  -4.8276  -4.7783  -4.7611  -4.7197  -4.7191  -4.7166  -4.6977
    -4.6837  -4.6809  -4.6605   5.9345   9.3244   9.3804  12.2555  13.3404
    13.5306  13.9741  14.0663  14.4698  14.7426  14.8543  14.9046  14.9974
    15.3768  16.1455  16.2119  16.3023  16.4569  16.8833  17.3026  17.7217
    18.7930  19.1920  19.7613  20.0987  20.3933  20.4239  20.8340  22.6472
    23.3333  23.7895  25.4410  25.5501  26.4729  27.1180  28.0401  28.0889
    28.2700  28.3983  29.8476  30.3436  30.9254  32.3249  33.6297  33.6328
    34.2922  34.5093  35.0430  35.6623  36.8030  37.1691  37.1865  37.2207

          k = 0.1944 0.3368 0.0000 ( 10007 PWs)   bands (ev):

   -77.6130 -77.6059 -77.6029 -40.9574 -40.9183 -40.9108 -40.9086 -40.9077
   -40.8881 -40.8640 -40.8469 -40.8383  -4.9423  -4.9319  -4.8886  -4.8473
    -4.8431  -4.8312  -4.7799  -4.7555  -4.7241  -4.7155  -4.7126  -4.6975
    -4.6771  -4.6763  -4.6614   6.1533   9.0063   9.1115  12.3488  13.4079
    13.5782  14.0447  14.0592  14.4410  14.7409  14.8362  14.8903  15.1134
    15.4408  16.0884  16.1386  16.2787  16.4831  17.0805  17.3473  17.7188
    18.9948  19.6173  19.6565  19.7482  20.0284  20.7057  20.7887  22.8432
    23.1919  23.5265  25.6090  25.6432  26.3100  26.9753  28.2821  28.4581
    28.6928  28.8024  29.7418  29.8712  30.2198  31.4591  33.3517  33.6535
    34.0706  35.1364  35.4613  35.4781  36.3472  36.5565  36.7996  37.1292

          k = 0.2222 0.3849 0.0000 (  9987 PWs)   bands (ev):

   -77.6123 -77.6066 -77.6029 -40.9517 -40.9176 -40.9115 -40.9108 -40.9077
   -40.8833 -40.8685 -40.8486 -40.8404  -4.9486  -4.9341  -4.8867  -4.8467
    -4.8419  -4.8353  -4.7839  -4.7504  -4.7274  -4.7128  -4.7102  -4.6972
    -4.6724  -4.6711  -4.6616   6.4029   8.6574   8.8873  12.4989  13.4654
    13.6304  14.0408  14.0810  14.4168  14.7357  14.7772  14.8866  15.2376
    15.5109  16.0282  16.0559  16.2528  16.5089  17.3106  17.4112  17.7111
    19.1704  19.3897  19.4638  19.6591  19.9705  20.8342  21.1142  22.8295
    23.0322  23.7648  25.6430  25.8421  26.1877  26.8396  27.6183  28.1876
    28.9330  29.3910  29.9802  30.1203  30.2433  30.6824  33.0853  33.5431
    33.8610  35.2495  35.5586  35.8193  35.8252  35.9918  36.6479  36.8334

          k = 0.2500 0.4330 0.0000 (  9981 PWs)   bands (ev):

   -77.6115 -77.6073 -77.6029 -40.9459 -40.9168 -40.9141 -40.9123 -40.9077
   -40.8785 -40.8722 -40.8502 -40.8426  -4.9558  -4.9339  -4.8829  -4.8454
    -4.8403  -4.8402  -4.7896  -4.7460  -4.7297  -4.7109  -4.7087  -4.6967
    -4.6694  -4.6672  -4.6604   6.6807   8.3368   8.6656  12.6950  13.5121
    13.6860  14.0094  14.0409  14.4341  14.7239  14.7322  14.8589  15.3637
    15.5849  15.9666  15.9691  16.2261  16.5339  17.5031  17.5721  17.7051
    19.0054  19.3096  19.3169  19.3499  19.9846  21.1622  21.3437  22.8876
    23.1881  24.0336  25.6251  26.0480  26.1312  26.5970  27.0730  27.5940
    28.3840  29.7206  30.1201  30.4896  30.7752  31.1274  32.8379  33.3763
    33.6660  34.8096  35.0579  35.0784  36.0123  36.0553  36.7502  36.7803

          k = 0.2777 0.4811 0.0000 (  9989 PWs)   bands (ev):

   -77.6108 -77.6081 -77.6029 -40.9401 -40.9184 -40.9160 -40.9131 -40.9077
   -40.8747 -40.8742 -40.8513 -40.8449  -4.9614  -4.9334  -4.8773  -4.8463
    -4.8435  -4.8383  -4.7957  -4.7423  -4.7315  -4.7096  -4.7081  -4.6962
    -4.6675  -4.6662  -4.6575   6.9814   8.0464   8.4597  12.9255  13.5468
    13.7436  13.9197  13.9660  14.4892  14.6999  14.7028  14.8255  15.4861
    15.6599  15.8808  15.9055  16.2006  16.5565  17.6308  17.7057  17.8614
    18.6362  19.0023  19.1633  19.5061  19.9001  20.9906  22.0019  23.2557
    23.2830  24.3108  25.5141  26.0805  26.1389  26.2667  27.0028  27.0231
    27.7364  28.9573  30.8638  31.1741  31.5146  31.9052  32.6154  33.1951
    33.4858  34.1122  34.3436  34.8544  35.3986  35.5307  37.3377  37.4442

          k = 0.3055 0.5292 0.0000 (  9969 PWs)   bands (ev):

   -77.6100 -77.6088 -77.6030 -40.9344 -40.9235 -40.9152 -40.9139 -40.9077
   -40.8760 -40.8710 -40.8514 -40.8473  -4.9649  -4.9331  -4.8701  -4.8534
    -4.8412  -4.8374  -4.8007  -4.7390  -4.7335  -4.7087  -4.7080  -4.6957
    -4.6664  -4.6661  -4.6553   7.2916   7.7879   8.2886  13.1752  13.5682
    13.7396  13.8017  13.9141  14.5536  14.6598  14.6877  14.8029  15.5990
    15.7313  15.7909  15.8468  16.1803  16.5742  17.7157  17.7987  18.1691
    18.2894  18.7160  19.0376  19.6449  19.8105  20.8167  22.6635  23.3026
    23.5586  24.5528  25.2838  25.8021  26.0770  26.5015  26.7249  27.0445
    27.1558  28.3122  31.5819  31.8517  32.2044  32.4505  32.6361  33.0377
    33.3087  33.5153  33.6546  34.6135  34.7882  35.0222  37.8935  38.1945

          k = 0.3333 0.5773 0.0000 (  9957 PWs)   bands (ev):

   -77.6095 -77.6093 -77.6030 -40.9289 -40.9288 -40.9146 -40.9145 -40.9077
   -40.8764 -40.8700 -40.8498 -40.8497  -4.9660  -4.9330  -4.8617  -4.8617
    -4.8387  -4.8386  -4.8026  -4.7360  -4.7360  -4.7082  -4.7082  -4.6956
    -4.6661  -4.6661  -4.6545   7.5618   7.5621   8.2040  13.3634  13.5760
    13.5761  13.8586  13.8586  14.6105  14.6105  14.6835  14.7958  15.6988
    15.6990  15.7919  15.7921  16.1716  16.5816  17.7278  18.0066  18.0070
    18.4580  18.4585  18.9713  19.7380  19.7380  20.7475  23.0413  23.4245
    23.4253  24.6652  25.2074  25.8472  25.8476  26.7541  26.7547  26.8914
    26.8922  28.0364  32.0554  32.0558  32.5250  32.5602  33.0043  33.0044
    33.1226  33.2465  33.2467  34.4637  34.4637  34.8012  38.2571  38.8095

          k = 0.3472 0.5532 0.0000 (  9967 PWs)   bands (ev):

   -77.6097 -77.6091 -77.6030 -40.9315 -40.9262 -40.9148 -40.9142 -40.9077
   -40.8763 -40.8702 -40.8510 -40.8483  -4.9657  -4.9330  -4.8663  -4.8572
    -4.8402  -4.8374  -4.8022  -4.7376  -4.7346  -4.7084  -4.7080  -4.6956
    -4.6662  -4.6661  -4.6547   7.4616   7.6397   8.2366  13.2887  13.5753
    13.6429  13.8310  13.8860  14.5859  14.6335  14.6843  14.7975  15.6522
    15.7437  15.7666  15.8154  16.1743  16.5792  17.7163  17.9175  18.1241
    18.3405  18.5538  19.0022  19.7116  19.7594  20.7652  22.9837  23.2071
    23.6219  24.6294  25.2040  25.7857  25.9550  26.6664  26.7280  26.8876
    27.0725  28.0936  31.9522  32.0152  32.4488  32.4694  32.9085  32.9689
    33.1251  33.3207  33.4436  34.4635  34.5575  34.9046  38.0313  38.6922

          k = 0.3611 0.5292 0.0000 (  9985 PWs)   bands (ev):

   -77.6100 -77.6088 -77.6030 -40.9341 -40.9236 -40.9152 -40.9139 -40.9077
   -40.8761 -40.8708 -40.8522 -40.8467  -4.9649  -4.9331  -4.8711  -4.8526
    -4.8423  -4.8361  -4.8008  -4.7393  -4.7332  -4.7087  -4.7079  -4.6958
    -4.6663  -4.6661  -4.6552   7.3698   7.6615   8.3363  13.1459  13.5717
    13.7627  13.8044  13.9123  14.5626  14.6522  14.6865  14.8024  15.6054
    15.7429  15.7856  15.8329  16.1828  16.5716  17.6717  17.8875  18.2305
    18.2482  18.5884  19.1035  19.6936  19.7655  20.8151  22.8613  22.9476
    23.7868  24.5215  25.1848  25.8053  25.9806  26.6650  26.6706  27.0247
    27.2926  28.2368  31.7816  31.8319  32.2669  32.3337  32.6828  32.8632
    33.0785  33.6036  33.7974  34.4128  34.8175  35.1906  37.5538  38.2679

          k = 0.3750 0.5051 0.0000 (  9981 PWs)   bands (ev):

   -77.6103 -77.6086 -77.6030 -40.9366 -40.9211 -40.9154 -40.9136 -40.9077
   -40.8757 -40.8717 -40.8535 -40.8450  -4.9635  -4.9332  -4.8762  -4.8479
    -4.8446  -4.8350  -4.7988  -4.7413  -4.7318  -4.7090  -4.7078  -4.6960
    -4.6665  -4.6661  -4.6560   7.2866   7.6450   8.4850  12.9803  13.5659
    13.7790  13.8892  13.9372  14.5413  14.6665  14.6896  14.8104  15.5585
    15.7209  15.8251  15.8443  16.1971  16.5582  17.6105  17.9010  18.1283
    18.3767  18.5807  19.2563  19.6862  19.7613  20.8888  22.6766  22.7008
    23.8899  24.3531  25.1497  25.8162  25.9138  26.7393  26.8286  27.1657
    27.5458  28.4378  31.5415  31.5973  32.1264  32.1356  32.3967  32.7416
    33.0286  33.9570  34.1978  34.3360  35.1723  35.5558  37.0216  37.7918

          k = 0.3889 0.4811 0.0000 (  9979 PWs)   bands (ev):

   -77.6105 -77.6083 -77.6030 -40.9390 -40.9187 -40.9157 -40.9134 -40.9077
   -40.8753 -40.8728 -40.8546 -40.8433  -4.9615  -4.9333  -4.8814  -4.8471
    -4.8433  -4.8338  -4.7963  -4.7434  -4.7305  -4.7093  -4.7078  -4.6964
    -4.6668  -4.6662  -4.6571   7.2120   7.6116   8.6605  12.8010  13.5583
    13.7554  13.9605  14.0134  14.5221  14.6765  14.6933  14.8214  15.5119
    15.7008  15.8502  15.8630  16.2164  16.5389  17.5552  17.9344  18.0342
    18.5061  18.5557  19.4344  19.6922  19.7529  20.9730  22.4168  22.5118
    23.9378  24.1440  25.0966  25.5704  26.0963  26.8703  27.0934  27.3096
    27.8278  28.6841  31.2572  31.3494  31.8910  32.0286  32.0853  32.6359
    32.9827  34.2454  34.3342  34.6176  35.5749  35.9236  36.4803  37.3519

          k = 0.4028 0.4570 0.0000 (  9995 PWs)   bands (ev):

   -77.6107 -77.6081 -77.6030 -40.9411 -40.9164 -40.9160 -40.9131 -40.9077
   -40.8748 -40.8740 -40.8558 -40.8416  -4.9591  -4.9334  -4.8868  -4.8495
    -4.8389  -4.8328  -4.7934  -4.7458  -4.7292  -4.7096  -4.7078  -4.6968
    -4.6671  -4.6663  -4.6582   7.1461   7.5732   8.8494  12.6122  13.5497
    13.7338  13.9820  14.1312  14.5054  14.6826  14.6973  14.8353  15.4661
    15.6828  15.8516  15.8999  16.2394  16.5143  17.5123  17.9486  17.9783
    18.5258  18.6314  19.6242  19.7158  19.7457  21.0466  22.1926  22.3015
    23.9124  23.9493  25.0014  25.3410  26.3268  27.0410  27.3892  27.4556
    28.1345  28.9692  30.9549  31.1030  31.6220  31.7650  31.9558  32.5475
    32.9419  34.1383  34.7176  35.0476  35.9305  36.0168  36.1592  37.0842

          k = 0.4166 0.4330 0.0000 (  9987 PWs)   bands (ev):

   -77.6109 -77.6079 -77.6030 -40.9430 -40.9162 -40.9142 -40.9129 -40.9077
   -40.8752 -40.8742 -40.8569 -40.8401  -4.9562  -4.9335  -4.8923  -4.8518
    -4.8347  -4.8319  -4.7902  -4.7484  -4.7279  -4.7099  -4.7078  -4.6973
    -4.6674  -4.6665  -4.6594   7.0889   7.5354   9.0440  12.4180  13.5405
    13.7146  14.0013  14.2402  14.4910  14.6851  14.7013  14.8517  15.4216
    15.6670  15.8500  15.9360  16.2643  16.4856  17.4819  17.8721  18.0288
    18.4961  18.7466  19.7441  19.7626  19.8184  21.0745  22.0409  22.0763
    23.6725  23.9417  24.8154  25.2011  26.5804  27.2392  27.6018  27.6914
    28.4607  29.2870  30.6475  30.8653  31.3471  31.4449  31.8984  32.4704
    32.9063  34.0057  35.0970  35.4219  35.4828  36.0345  36.4464  37.2239

          k = 0.4305 0.4089 0.0000 (  9993 PWs)   bands (ev):

   -77.6111 -77.6077 -77.6029 -40.9447 -40.9164 -40.9127 -40.9123 -40.9077
   -40.8764 -40.8736 -40.8579 -40.8387  -4.9529  -4.9336  -4.8978  -4.8538
    -4.8311  -4.8309  -4.7868  -4.7512  -4.7267  -4.7102  -4.7078  -4.6979
    -4.6677  -4.6668  -4.6604   7.0404   7.5012   9.2383  12.2230  13.5316
    13.6979  14.0181  14.3380  14.4790  14.6844  14.7051  14.8700  15.3792
    15.6534  15.8466  15.9716  16.2892  16.4541  17.4617  17.8052  18.0826
    18.4691  18.8449  19.7517  19.8380  20.0112  21.0200  21.8421  21.9990
    23.4351  23.9261  24.5653  25.1351  26.8384  27.4564  27.7455  27.9914
    28.7982  29.6277  30.3415  30.6419  31.0808  31.1333  31.8525  32.3988
    32.8760  33.8337  34.9270  35.4633  35.7329  35.9187  36.8932  37.6002

          k = 0.4444 0.3849 0.0000 ( 10005 PWs)   bands (ev):

   -77.6113 -77.6076 -77.6029 -40.9461 -40.9165 -40.9126 -40.9105 -40.9077
   -40.8776 -40.8730 -40.8589 -40.8376  -4.9493  -4.9336  -4.9033  -4.8555
    -4.8304  -4.8275  -4.7833  -4.7542  -4.7256  -4.7104  -4.7079  -4.6985
    -4.6680  -4.6673  -4.6613   7.0007   7.4720   9.4261  12.0337  13.5235
    13.6841  14.0323  14.4231  14.4693  14.6809  14.7084  14.8893  15.3400
    15.6422  15.8424  16.0061  16.3125  16.4215  17.4491  17.7487  18.1363
    18.4460  18.9219  19.7713  19.9453  20.1963  20.8908  21.6039  22.0590
    23.2102  23.9089  24.3048  25.0973  27.0861  27.6867  27.8828  28.2869
    29.1334  29.9667  30.0410  30.4382  30.8376  30.8494  31.8160  32.3272
    32.8513  33.6090  34.4702  35.4485  35.8054  36.3488  37.3394  38.0314

          k = 0.4583 0.3608 0.0000 ( 10017 PWs)   bands (ev):

   -77.6114 -77.6075 -77.6029 -40.9471 -40.9166 -40.9125 -40.9091 -40.9077
   -40.8786 -40.8724 -40.8597 -40.8366  -4.9456  -4.9335  -4.9087  -4.8569
    -4.8299  -4.8248  -4.7798  -4.7573  -4.7247  -4.7106  -4.7079  -4.6990
    -4.6682  -4.6678  -4.6619   6.9698   7.4487   9.5987  11.8590  13.5165
    13.6732  14.0436  14.4619  14.4943  14.6744  14.7112  14.9083  15.3055
    15.6334  15.8384  16.0385  16.3326  16.3899  17.4419  17.7035  18.1854
    18.4275  18.9768  19.8042  20.0835  20.3650  20.7308  21.3663  22.1759
    23.0087  23.8935  24.0580  25.0723  27.3094  27.9241  28.0074  28.5780
    29.4419  29.7504  30.1843  30.2614  30.6387  30.7026  31.7882  32.2498
    32.8319  33.3303  34.0708  35.2319  36.1086  36.7625  37.7760  38.4670

          k = 0.4722 0.3368 0.0000 ( 10022 PWs)   bands (ev):

   -77.6114 -77.6074 -77.6029 -40.9479 -40.9167 -40.9124 -40.9080 -40.9077
   -40.8794 -40.8720 -40.8603 -40.8360  -4.9421  -4.9332  -4.9136  -4.8580
    -4.8295  -4.8228  -4.7764  -4.7604  -4.7240  -4.7108  -4.7079  -4.6994
    -4.6683  -4.6683  -4.6622   6.9478   7.4318   9.7437  11.7121  13.5113
    13.6653  14.0518  14.4566  14.5513  14.6644  14.7133  14.9250  15.2776
    15.6271  15.8352  16.0666  16.3480  16.3621  17.4380  17.6704  18.2254
    18.4141  19.0122  19.8487  20.2470  20.5050  20.5771  21.1344  22.3083
    22.8444  23.8432  23.8816  25.0557  27.4922  28.1101  28.1595  28.8641
    29.4776  29.6795  30.0538  30.1211  30.5175  30.9012  31.7686  32.1645
    32.8181  33.0206  33.7555  35.0890  36.3531  37.1373  38.1861  38.8765

          k = 0.4861 0.3127 0.0000 ( 10010 PWs)   bands (ev):

   -77.6115 -77.6073 -77.6029 -40.9484 -40.9168 -40.9123 -40.9077 -40.9073
   -40.8799 -40.8717 -40.8607 -40.8356  -4.9396  -4.9324  -4.9176  -4.8586
    -4.8292  -4.8215  -4.7733  -4.7632  -4.7235  -4.7109  -4.7080  -4.6997
    -4.6687  -4.6684  -4.6624   6.9345   7.4216   9.8435  11.6109  13.5081
    13.6605  14.0568  14.4534  14.5946  14.6495  14.7145  14.9367  15.2591
    15.6233  15.8331  16.0868  16.3420  16.3578  17.4362  17.6502  18.2516
    18.4059  19.0317  19.8943  20.4232  20.4596  20.6000  20.9184  22.4183
    22.7345  23.6867  23.8742  25.0461  27.6149  28.1793  28.3685  29.1376
    29.2464  29.7985  29.8032  30.0291  30.4971  31.1788  31.7569  32.0850
    32.7392  32.8098  33.5533  35.0101  36.5149  37.4252  38.5257  39.2070

          k = 0.5000 0.2887 0.0000 ( 10026 PWs)   bands (ev):

   -77.6115 -77.6073 -77.6029 -40.9486 -40.9168 -40.9123 -40.9077 -40.9070
   -40.8800 -40.8716 -40.8608 -40.8354  -4.9387  -4.9318  -4.9193  -4.8588
    -4.8292  -4.8211  -4.7717  -4.7647  -4.7234  -4.7109  -4.7080  -4.6998
    -4.6688  -4.6685  -4.6625   6.9301   7.4181   9.8797  11.5743  13.5070
    13.6589  14.0584  14.4524  14.6216  14.6320  14.7150  14.9410  15.2526
    15.6220  15.8323  16.0943  16.3345  16.3611  17.4357  17.6434  18.2607
    18.4032  19.0378  19.9158  20.4131  20.5419  20.6341  20.7867  22.4630
    22.6954  23.6270  23.8717  25.0429  27.6586  28.2040  28.4693  29.1382
    29.3111  29.6328  29.8243  29.9969  30.5123  31.3092  31.7530  32.0497
    32.6108  32.8071  33.4839  34.9850  36.5719  37.5404  38.6766  39.3474

          k = 0.4583 0.2646 0.0000 ( 10008 PWs)   bands (ev):

   -77.6117 -77.6072 -77.6029 -40.9494 -40.9169 -40.9122 -40.9077 -40.9069
   -40.8810 -40.8709 -40.8599 -40.8354  -4.9386  -4.9310  -4.9187  -4.8585
    -4.8298  -4.8211  -4.7710  -4.7651  -4.7234  -4.7112  -4.7082  -4.6997
    -4.6713  -4.6665  -4.6632   6.7991   7.5702   9.8840  11.5862  13.4965
    13.6514  14.0604  14.4334  14.6220  14.6420  14.7238  14.9376  15.2409
    15.5993  15.8562  16.1005  16.3415  16.3612  17.4320  17.5643  18.2301
    18.5003  19.0817  19.7548  20.2755  20.6394  20.6820  20.9060  22.4370
    22.7013  23.6291  23.6821  25.4119  27.5597  27.8139  28.8706  28.9409
    28.9760  29.7521  30.1760  30.2158  30.3382  31.3793  31.5136  31.7394
    32.8117  33.2127  33.3692  35.2543  36.4964  37.6259  38.4864  39.4529

          k = 0.4167 0.2406 0.0000 (  9988 PWs)   bands (ev):

   -77.6120 -77.6068 -77.6029 -40.9516 -40.9173 -40.9118 -40.9077 -40.9067
   -40.8834 -40.8688 -40.8576 -40.8353  -4.9387  -4.9288  -4.9170  -4.8577
    -4.8317  -4.8213  -4.7692  -4.7661  -4.7234  -4.7123  -4.7090  -4.6995
    -4.6745  -4.6654  -4.6648   6.5725   7.8592   9.8969  11.6219  13.4669
    13.6305  14.0651  14.3848  14.6227  14.6633  14.7494  14.9263  15.2069
    15.5493  15.9098  16.1185  16.3608  16.3612  17.3960  17.4203  18.1548
    18.7214  19.1929  19.4539  20.0499  20.6569  20.9210  21.0655  22.2700
    22.7186  23.4087  23.8476  26.1125  27.3172  27.3354  28.4937  28.5764
    29.3613  29.9886  30.0893  30.6449  30.7053  30.7827  31.1678  31.9205
    33.0857  33.1907  33.9261  35.8704  36.3243  37.8241  38.1474  39.3449

          k = 0.3750 0.2165 0.0000 (  9984 PWs)   bands (ev):

   -77.6125 -77.6063 -77.6029 -40.9548 -40.9179 -40.9112 -40.9077 -40.9065
   -40.8865 -40.8658 -40.8547 -40.8351  -4.9389  -4.9251  -4.9139  -4.8564
    -4.8341  -4.8215  -4.7677  -4.7672  -4.7229  -4.7140  -4.7103  -4.6993
    -4.6782  -4.6688  -4.6633   6.3455   8.1882   9.9193  11.6807  13.4227
    13.6004  14.0699  14.3170  14.6224  14.6847  14.7898  14.9038  15.1535
    15.4916  15.9730  16.1459  16.3613  16.3872  17.2100  17.4003  18.0614
    18.9899  19.1403  19.3180  19.8573  20.6909  21.1039  21.1366  21.9657
    22.7470  23.5179  24.1206  26.8739  26.8801  27.0141  28.0330  28.1930
    29.6173  29.6845  30.4218  30.4764  30.5240  31.1361  31.2440  32.3928
    33.0111  33.3977  34.7048  36.1242  36.6299  37.7835  38.0545  38.7692

          k = 0.3333 0.1925 0.0000 (  9990 PWs)   bands (ev):

   -77.6131 -77.6057 -77.6029 -40.9587 -40.9185 -40.9106 -40.9077 -40.9063
   -40.8898 -40.8621 -40.8516 -40.8348  -4.9394  -4.9202  -4.9096  -4.8546
    -4.8365  -4.8217  -4.7699  -4.7662  -4.7214  -4.7165  -4.7125  -4.6989
    -4.6822  -4.6733  -4.6620   6.1353   8.5356   9.9530  11.7616  13.3693
    13.5655  14.0725  14.2348  14.6190  14.7015  14.8416  14.8658  15.0841
    15.4340  16.0378  16.1793  16.3615  16.4138  17.0326  17.3715  17.9669
    18.8519  19.2697  19.3227  19.8263  20.7510  20.8874  21.3046  21.8128
    22.7857  23.8399  24.4904  26.4348  26.7005  27.3982  27.8223  27.8398
    29.2101  29.3782  29.9059  30.7553  30.9408  31.6577  31.7332  32.8980
    32.9506  33.6822  35.5029  35.9341  37.3698  37.4077  37.9041  38.0939

          k = 0.2917 0.1684 0.0000 ( 10010 PWs)   bands (ev):

   -77.6137 -77.6052 -77.6029 -40.9629 -40.9191 -40.9101 -40.9077 -40.9060
   -40.8930 -40.8580 -40.8487 -40.8345  -4.9403  -4.9140  -4.9041  -4.8524
    -4.8386  -4.8217  -4.7725  -4.7668  -4.7200  -4.7186  -4.7157  -4.6985
    -4.6863  -4.6783  -4.6609   5.9468   8.8882  10.0031  11.8628  13.3111
    13.5294  14.0718  14.1413  14.6080  14.7109  14.8098  14.9006  15.0036
    15.3797  16.1005  16.2151  16.3617  16.4328  16.8728  17.3354  17.8789
    18.6072  19.1459  19.5340  19.9939  20.5251  20.8536  21.4262  21.8314
    22.8333  24.2727  24.9362  26.0186  26.4035  27.0802  27.4745  28.2803
    28.6289  29.1016  29.5509  31.3020  31.4349  32.0786  32.1989  33.0515
    33.4193  33.9794  35.7278  36.3403  36.7696  36.9233  37.5237  38.3410

          k = 0.2500 0.1443 0.0000 ( 10012 PWs)   bands (ev):

   -77.6142 -77.6046 -77.6029 -40.9670 -40.9196 -40.9095 -40.9077 -40.9059
   -40.8961 -40.8540 -40.8462 -40.8339  -4.9414  -4.9069  -4.8978  -4.8499
    -4.8400  -4.8213  -4.7754  -4.7692  -4.7243  -4.7202  -4.7148  -4.6981
    -4.6900  -4.6835  -4.6599   5.7817   9.2256  10.0836  11.9821  13.2500
    13.4948  14.0405  14.0682  14.5815  14.6948  14.7518  14.9197  14.9623
    15.3304  16.1587  16.2492  16.3621  16.4378  16.7345  17.2968  17.7980
    18.4149  18.8972  19.7557  20.0867  20.3461  21.0210  21.5107  21.9027
    22.8880  24.7641  25.4217  25.6230  26.1509  26.7046  27.1553  28.0554
    28.0814  28.8610  29.9696  31.8840  31.9414  32.2160  32.7529  33.3526
    33.9276  34.2700  35.5716  36.0226  36.1159  37.1228  37.1916  38.5613

          k = 0.2083 0.1203 0.0000 ( 10008 PWs)   bands (ev):

   -77.6147 -77.6042 -77.6029 -40.9708 -40.9201 -40.9090 -40.9077 -40.9057
   -40.8988 -40.8503 -40.8442 -40.8332  -4.9425  -4.8993  -4.8912  -4.8472
    -4.8407  -4.8204  -4.7786  -4.7729  -4.7297  -4.7260  -4.7104  -4.6978
    -4.6931  -4.6883  -4.6590   5.6412   9.5086  10.2262  12.1156  13.1835
    13.4636  13.9389  14.0622  14.5264  14.6054  14.7406  14.8465  15.0224
    15.2872  16.2106  16.2782  16.3626  16.4259  16.6191  17.2633  17.7177
    18.2747  18.6279  19.8695  19.9161  20.5969  21.2682  21.5680  21.9898
    22.9470  25.2426  25.2684  25.7330  26.1407  26.3646  26.8698  27.5237
    27.5716  28.6632  30.7563  32.2529  32.4419  32.4701  33.3121  33.7276
    34.2961  34.3776  35.4006  35.4383  35.5873  36.9651  37.7618  38.4356

          k = 0.1667 0.0962 0.0000 ( 10010 PWs)   bands (ev):

   -77.6151 -77.6038 -77.6029 -40.9742 -40.9205 -40.9086 -40.9077 -40.9056
   -40.9011 -40.8469 -40.8427 -40.8323  -4.9437  -4.8914  -4.8849  -4.8445
    -4.8406  -4.8188  -4.7817  -4.7773  -4.7358  -4.7327  -4.7060  -4.6974
    -4.6955  -4.6923  -4.6581   5.5256   9.6943  10.4641  12.2580  13.1031
    13.4369  13.8479  14.0551  14.4338  14.4823  14.7412  14.7966  15.0769
    15.2509  16.2546  16.2996  16.3635  16.4002  16.5268  17.2407  17.6262
    18.1787  18.3858  19.6966  20.0180  20.8980  21.5892  21.6058  22.0848
    23.0066  24.8682  25.6107  25.6885  26.0901  26.6083  26.6230  27.0542
    27.1151  28.5197  31.5355  32.3377  32.8891  33.0394  33.8653  33.8906
    34.0927  34.1462  35.3367  35.4076  35.6991  36.8090  38.0513  38.0781

          k = 0.1250 0.0722 0.0000 ( 10000 PWs)   bands (ev):

   -77.6154 -77.6034 -77.6029 -40.9769 -40.9209 -40.9082 -40.9077 -40.9055
   -40.9030 -40.8442 -40.8416 -40.8315  -4.9447  -4.8838  -4.8793  -4.8419
    -4.8399  -4.8164  -4.7846  -4.7817  -4.7422  -4.7399  -4.7022  -4.6973
    -4.6972  -4.6955  -4.6575   5.4355   9.7940  10.7717  12.4005  12.9970
    13.4155  13.7820  14.0479  14.3146  14.3464  14.7423  14.7684  15.1224
    15.2221  16.2893  16.3120  16.3650  16.3690  16.4571  17.2295  17.5174
    18.1162  18.2120  19.5816  20.0781  21.1901  21.6299  21.9641  22.1862
    23.0621  24.4886  25.4612  25.7196  25.9565  26.4210  26.6668  26.9898
    27.1017  28.4558  31.9331  32.8028  33.0051  33.2805  33.5628  33.8181
    34.3932  34.4307  35.2752  35.7946  36.1261  36.7298  37.7246  38.1227

          k = 0.0833 0.0481 0.0000 ( 10018 PWs)   bands (ev):

   -77.6156 -77.6032 -77.6029 -40.9789 -40.9211 -40.9080 -40.9077 -40.9055
   -40.9043 -40.8422 -40.8410 -40.8307  -4.9455  -4.8775  -4.8750  -4.8398
    -4.8390  -4.8135  -4.7870  -4.7855  -4.7479  -4.7465  -4.6993  -4.6985
    -4.6977  -4.6970  -4.6570   5.3710   9.8463  11.0871  12.5292  12.8614
    13.4000  13.7518  14.0419  14.1939  14.2141  14.7429  14.7533  15.1564
    15.2013  16.3136  16.3165  16.3409  16.3673  16.4088  17.2263  17.4086
    18.0780  18.1121  19.5094  20.1117  21.4362  21.6443  22.2912  22.3727
    23.1078  24.0941  25.3477  25.5287  25.7358  26.2700  26.3792  27.2631
    27.4717  28.5198  31.9895  32.5571  32.6935  33.5601  33.9922  34.0678
    34.7026  34.8602  35.2650  36.1360  36.5908  36.7499  37.3830  37.9762

          k = 0.0417 0.0241 0.0000 ( 10023 PWs)   bands (ev):

   -77.6158 -77.6031 -77.6029 -40.9802 -40.9213 -40.9078 -40.9077 -40.9054
   -40.9052 -40.8410 -40.8407 -40.8302  -4.9460  -4.8731  -4.8724  -4.8383
    -4.8381  -4.8109  -4.7886  -4.7882  -4.7519  -4.7515  -4.6992  -4.6990
    -4.6974  -4.6968  -4.6567   5.3323   9.8726  11.3431  12.6232  12.7237
    13.3905  13.7530  14.0378  14.1012  14.1090  14.7433  14.7457  15.1774
    15.1887  16.3162  16.3220  16.3270  16.3701  16.3806  17.2265  17.3305
    18.0575  18.0647  19.4696  20.1286  21.5986  21.6519  22.3831  22.7972
    23.1381  23.6836  25.2780  25.3394  25.5616  26.1762  26.2034  27.5645
    27.6464  28.6993  31.9712  32.1146  32.2892  34.2090  34.2659  34.3486
    34.9432  35.2030  35.3034  36.3364  36.8042  36.9008  37.1443  37.6593

          k = 0.0000 0.0000 0.0000 ( 10021 PWs)   bands (ev):

   -77.6158 -77.6030 -77.6029 -40.9806 -40.9214 -40.9078 -40.9077 -40.9054
   -40.9054 -40.8406 -40.8405 -40.8301  -4.9462  -4.8715  -4.8715  -4.8378
    -4.8378  -4.8098  -4.7891  -4.7891  -4.7534  -4.7534  -4.6994  -4.6994
    -4.6968  -4.6968  -4.6565   5.3194   9.8807  11.4491  12.6585  12.6586
    13.3874  13.7605  14.0364  14.0658  14.0659  14.7433  14.7434  15.1844
    15.1845  16.3154  16.3155  16.3312  16.3713  16.3714  17.2269  17.3027
    18.0510  18.0511  19.4569  20.1337  21.6543  21.6544  22.4225  23.1487
    23.1488  23.3374  25.2546  25.2546  25.5086  26.1443  26.1444  27.6877
    27.6877  28.8031  31.9349  31.9350  32.1648  34.3554  34.4612  34.4613
    35.0914  35.3335  35.3335  36.4222  36.7822  36.7823  37.3253  37.5784

          k = 0.0000 0.0000 0.0516 ( 10021 PWs)   bands (ev):

   -77.6158 -77.6030 -77.6029 -40.9806 -40.9214 -40.9078 -40.9077 -40.9054
   -40.9054 -40.8406 -40.8405 -40.8301  -4.9459  -4.8715  -4.8715  -4.8381
    -4.8380  -4.8094  -4.7899  -4.7899  -4.7531  -4.7531  -4.6990  -4.6990
    -4.6968  -4.6968  -4.6564   5.3341   9.8682  11.4390  12.6747  12.6748
    13.4097  13.5906  14.0704  14.0705  14.1632  14.7432  14.7432  15.1851
    15.1852  16.3155  16.3156  16.3303  16.3699  16.3700  17.2269  17.3049
    18.0280  18.0281  19.5337  20.0717  21.6066  21.6067  22.1055  23.0117
    23.0119  23.6785  25.4349  25.4350  25.6163  26.1900  26.1901  27.7433
    27.7433  28.8214  31.9338  31.9339  32.1655  34.3359  34.4053  34.4053
    35.0956  35.3055  35.3055  36.2956  36.7957  36.7957  37.2586  37.3855

          k = 0.0000 0.0000 0.1033 ( 10003 PWs)   bands (ev):

   -77.6158 -77.6030 -77.6029 -40.9805 -40.9214 -40.9078 -40.9077 -40.9054
   -40.9054 -40.8406 -40.8405 -40.8301  -4.9450  -4.8713  -4.8713  -4.8388
    -4.8388  -4.8083  -4.7921  -4.7921  -4.7522  -4.7522  -4.6977  -4.6977
    -4.6969  -4.6969  -4.6561   5.3782   9.8287  11.4107  12.7233  12.7234
    13.3083  13.4750  14.0839  14.0840  14.3264  14.7429  14.7429  15.1871
    15.1872  16.3158  16.3159  16.3280  16.3657  16.3658  17.2270  17.3063
    17.9585  17.9586  19.7274  19.9357  21.4723  21.4724  21.5708  22.6982
    22.6983  24.2854  25.8788  25.8789  25.9229  26.3179  26.3180  27.9103
    27.9103  28.8762  31.9307  31.9307  32.1670  34.2345  34.2345  34.2788
    35.1081  35.2269  35.2269  35.9690  36.8330  36.8330  36.9791  37.0997

          k = 0.0000 0.0000 0.1549 (  9991 PWs)   bands (ev):

   -77.6158 -77.6030 -77.6029 -40.9805 -40.9214 -40.9078 -40.9076 -40.9054
   -40.9054 -40.8406 -40.8405 -40.8301  -4.9436  -4.8710  -4.8709  -4.8399
    -4.8399  -4.8066  -4.7955  -4.7955  -4.7508  -4.7508  -4.6970  -4.6970
    -4.6958  -4.6958  -4.6556   5.4515   9.7565  11.3682  12.8036  12.8037
    13.0129  13.5784  14.1053  14.1054  14.4541  14.7421  14.7422  15.1909
    15.1910  16.3162  16.3162  16.3242  16.3591  16.3592  17.2270  17.2959
    17.8417  17.8417  19.6054  20.1849  21.0218  21.2730  21.2731  22.3374
    22.3375  24.9539  26.3905  26.4570  26.4571  26.5074  26.5074  28.1874
    28.1874  28.9671  31.9261  31.9261  32.1676  33.9488  33.9488  34.1876
    35.1107  35.1107  35.1282  35.5327  36.3644  36.8876  36.8877  36.9009

          k = 0.0000 0.0000 0.2066 (  9960 PWs)   bands (ev):

   -77.6158 -77.6030 -77.6029 -40.9805 -40.9215 -40.9078 -40.9076 -40.9055
   -40.9054 -40.8406 -40.8405 -40.8300  -4.9417  -4.8705  -4.8705  -4.8413
    -4.8413  -4.8043  -4.7997  -4.7997  -4.7490  -4.7490  -4.6972  -4.6972
    -4.6936  -4.6936  -4.6550   5.5536   9.6438  11.3170  12.7367  12.9149
    12.9150  13.7136  14.1331  14.1332  14.5478  14.7409  14.7409  15.1970
    15.1971  16.3164  16.3165  16.3193  16.3506  16.3507  17.2270  17.2634
    17.6775  17.6776  19.3313  20.4897  20.6789  21.0339  21.0340  21.9926
    21.9927  25.6514  26.7392  26.7393  26.9791  27.1045  27.1046  28.5682
    28.5683  29.0935  31.9212  31.9212  32.1627  33.5649  33.5649  34.0634
    34.9713  34.9713  35.0473  35.1551  35.5490  36.8130  36.8130  36.9534

          k = 0.0000 0.0000 0.2582 (  9954 PWs)   bands (ev):

   -77.6158 -77.6030 -77.6029 -40.9804 -40.9216 -40.9078 -40.9076 -40.9055
   -40.9054 -40.8406 -40.8405 -40.8300  -4.9396  -4.8701  -4.8700  -4.8430
    -4.8430  -4.8044  -4.8044  -4.8017  -4.7468  -4.7468  -4.6975  -4.6975
    -4.6912  -4.6911  -4.6543   5.6839   9.4835  11.2621  12.5020  13.0557
    13.0558  13.8739  14.1653  14.1654  14.6159  14.7389  14.7389  15.2060
    15.2061  16.3136  16.3163  16.3164  16.3409  16.3410  17.2017  17.2271
    17.4686  17.4687  19.0574  19.9841  20.7774  20.7776  21.2788  21.6900
    21.6901  26.3664  27.0027  27.0027  27.6563  27.7899  27.7900  29.0407
    29.0407  29.2547  31.9180  31.9180  32.1399  33.1121  33.1121  33.8859
    34.5443  34.7031  34.8201  34.8201  35.1876  36.8208  36.8208  37.0262

          k = 0.0000 0.0000 0.3099 (  9972 PWs)   bands (ev):

   -77.6158 -77.6030 -77.6029 -40.9804 -40.9217 -40.9077 -40.9076 -40.9055
   -40.9055 -40.8406 -40.8406 -40.8300  -4.9373  -4.8695  -4.8695  -4.8448
    -4.8448  -4.8092  -4.8092  -4.7988  -4.7443  -4.7443  -4.6980  -4.6980
    -4.6888  -4.6888  -4.6535   5.8416   9.2733  11.2079  12.3214  13.2242
    13.2243  14.0525  14.1994  14.1995  14.6666  14.7356  14.7356  15.2183
    15.2184  16.3075  16.3151  16.3152  16.3307  16.3308  17.1074  17.2214
    17.2215  17.2272  18.8155  19.5104  20.5218  20.5220  21.4387  21.4388
    21.9585  27.0898  27.2940  27.2940  28.3970  28.4929  28.4930  29.4496
    29.5895  29.5896  31.9200  31.9201  32.0587  32.6190  32.6190  33.5019
    34.0405  34.0835  34.6645  34.6645  35.2242  36.9014  36.9014  37.0348

          k = 0.0000 0.0000 0.3615 (  9936 PWs)   bands (ev):

   -77.6158 -77.6030 -77.6029 -40.9803 -40.9217 -40.9077 -40.9076 -40.9055
   -40.9055 -40.8406 -40.8406 -40.8300  -4.9350  -4.8690  -4.8690  -4.8465
    -4.8465  -4.8139  -4.8139  -4.7960  -4.7417  -4.7417  -4.6986  -4.6986
    -4.6866  -4.6866  -4.6527   6.0252   9.0186  11.1576  12.1960  13.4175
    13.4176  14.2328  14.2329  14.2418  14.7057  14.7301  14.7301  15.2337
    15.2338  16.3015  16.3109  16.3110  16.3208  16.3209  16.9479  16.9481
    16.9835  17.2272  18.6219  19.0743  20.2814  20.2815  21.2392  21.2392
    22.6998  27.6128  27.6128  27.8105  29.1775  29.1935  29.1936  29.6768
    30.1996  30.1997  31.7786  31.9340  31.9340  32.1066  32.1066  32.9459
    33.5451  33.8343  34.5068  34.5068  35.2632  36.8791  37.0334  37.0334

          k = 0.0000 0.0000 0.4132 (  9966 PWs)   bands (ev):

   -77.6158 -77.6030 -77.6029 -40.9803 -40.9218 -40.9077 -40.9076 -40.9055
   -40.9055 -40.8406 -40.8406 -40.8300  -4.9329  -4.8685  -4.8684  -4.8481
    -4.8481  -4.8181  -4.8181  -4.7933  -4.7391  -4.7391  -4.6994  -4.6994
    -4.6847  -4.6847  -4.6519   6.2325   8.7315  11.1138  12.1181  13.6313
    13.6314  14.2631  14.2632  14.4328  14.7207  14.7207  14.7373  15.2513
    15.2514  16.2958  16.2969  16.2970  16.3118  16.3118  16.6692  16.6694
    16.8418  17.2273  18.4796  18.6833  20.0678  20.0679  21.0872  21.0873
    23.4874  27.9591  27.9592  28.5117  29.8640  29.8641  29.9349  29.9448
    30.8566  30.8567  31.1685  31.5892  31.5892  31.9731  31.9731  32.6760
    33.0643  33.6862  34.3444  34.3445  35.3029  36.7055  37.1817  37.1817

          k = 0.0000 0.0000 0.4648 (  9996 PWs)   bands (ev):

   -77.6158 -77.6030 -77.6029 -40.9803 -40.9219 -40.9077 -40.9076 -40.9055
   -40.9055 -40.8406 -40.8406 -40.8300  -4.9311  -4.8680  -4.8680  -4.8495
    -4.8495  -4.8216  -4.8216  -4.7910  -4.7368  -4.7368  -4.7002  -4.7002
    -4.6831  -4.6831  -4.6513   6.4594   8.4281  11.0781  12.0753  13.8590
    13.8590  14.2884  14.2885  14.6136  14.7037  14.7037  14.7633  15.2694
    15.2695  16.2304  16.2305  16.2910  16.3041  16.3042  16.4466  16.4467
    16.7010  17.2273  18.3482  18.3825  19.8904  19.8905  20.9770  20.9771
    24.3060  28.3328  28.3329  29.1658  30.0582  30.2211  30.4563  30.4564
    31.0227  31.0742  31.0742  31.5464  31.5465  32.0651  32.0651  32.6031
    32.6049  33.5709  34.1696  34.1697  35.3427  36.4746  36.9252  36.9253

          k = 0.0000 0.0000 0.5164 (  9966 PWs)   bands (ev):

   -77.6158 -77.6030 -77.6029 -40.9802 -40.9219 -40.9077 -40.9076 -40.9055
   -40.9055 -40.8406 -40.8406 -40.8300  -4.9297  -4.8676  -4.8676  -4.8505
    -4.8505  -4.8243  -4.8243  -4.7892  -4.7348  -4.7348  -4.7009  -4.7009
    -4.6820  -4.6820  -4.6508   6.6966   8.1284  11.0519  12.0551  14.0890
    14.0891  14.3072  14.3073  14.6716  14.6716  14.7675  14.7838  15.2854
    15.2854  16.0434  16.0435  16.2873  16.2984  16.2985  16.3742  16.3743
    16.5820  17.2274  18.0846  18.3212  19.7574  19.7575  20.9028  20.9029
    25.1324  28.7328  28.7328  29.2533  29.7267  30.5306  30.5718  30.5718
    30.8950  30.8950  31.7325  32.1678  32.2392  32.2393  32.2521  32.2521
    32.5994  33.4809  33.9734  33.9734  35.3847  36.1112  36.1387  36.1388

          k = 0.0000 0.0000 0.5681 (  9960 PWs)   bands (ev):

   -77.6158 -77.6030 -77.6029 -40.9802 -40.9220 -40.9077 -40.9076 -40.9055
   -40.9055 -40.8406 -40.8406 -40.8300  -4.9288  -4.8674  -4.8674  -4.8512
    -4.8511  -4.8259  -4.8259  -4.7881  -4.7336  -4.7336  -4.7014  -4.7014
    -4.6813  -4.6813  -4.6505   6.9171   7.8673  11.0358  12.0474  14.3015
    14.3015  14.3188  14.3188  14.6107  14.6108  14.7974  14.8737  15.2964
    15.2965  15.8671  15.8672  16.2850  16.2948  16.2949  16.3599  16.3600
    16.5025  17.2274  17.9128  18.2877  19.6749  19.6750  20.8601  20.8602
    25.9004  28.4520  29.1566  29.1566  30.0852  30.0852  30.1226  30.8464
    31.1300  31.1301  31.7763  32.3513  32.5174  32.5174  32.6549  32.8656
    32.8657  33.4149  33.7667  33.7668  35.4347  35.4356  35.4357  35.6419

          k = 0.0000 0.0000 0.6197 (  9948 PWs)   bands (ev):

   -77.6158 -77.6030 -77.6029 -40.9802 -40.9220 -40.9077 -40.9076 -40.9055
   -40.9055 -40.8406 -40.8406 -40.8300  -4.9285  -4.8673  -4.8673  -4.8514
    -4.8514  -4.8265  -4.8265  -4.7877  -4.7331  -4.7331  -4.7016  -4.7016
    -4.6811  -4.6811  -4.6504   7.0274   7.7429  11.0304  12.0456  14.3226
    14.3227  14.4359  14.4360  14.5352  14.5353  14.8022  14.9120  15.3003
    15.3004  15.7976  15.7978  16.2842  16.2936  16.2937  16.3570  16.3571
    16.4746  17.2274  17.8527  18.2771  19.6469  19.6470  20.8462  20.8462
    26.3097  28.0288  29.5469  29.5469  29.6738  29.6738  30.2686  31.0456
    31.1974  31.1975  31.5518  32.5067  32.6685  32.6685  32.8141  33.1744
    33.1745  33.3807  33.6537  33.6538  35.1002  35.1003  35.3924  35.4729

     Writing output data file ./out/cosn.save/

     init_run     :      0.05s CPU      0.06s WALL (       1 calls)
     electrons    :     95.63s CPU    102.16s WALL (       1 calls)

     Called by init_run:
     wfcinit      :      0.00s CPU      0.00s WALL (       1 calls)
     potinit      :      0.01s CPU      0.01s WALL (       1 calls)
     hinit0       :      0.02s CPU      0.02s WALL (       1 calls)

     Called by electrons:
     c_bands      :     95.63s CPU    102.13s WALL (       1 calls)
     v_of_rho     :      0.01s CPU      0.01s WALL (       1 calls)

     Called by c_bands:
     init_us_2    :      0.01s CPU      0.01s WALL (      98 calls)
     cegterg      :     92.39s CPU     98.59s WALL (     115 calls)

     Called by *egterg:
     cdiaghg      :     35.79s CPU     37.74s WALL (    1945 calls)
     h_psi        :     23.45s CPU     25.51s WALL (    2060 calls)
     g_psi        :      0.18s CPU      0.19s WALL (    1847 calls)

     Called by h_psi:
     h_psi:calbec :      4.36s CPU      4.82s WALL (    2060 calls)
     vloc_psi     :     14.97s CPU     16.34s WALL (    2060 calls)
     add_vuspsi   :      4.06s CPU      4.30s WALL (    2060 calls)

     General routines
     calbec       :      4.36s CPU      4.82s WALL (    2060 calls)
     fft          :      0.00s CPU      0.00s WALL (      18 calls)
     fftw         :     13.63s CPU     14.90s WALL (  208198 calls)
     davcio       :      0.04s CPU      0.05s WALL (     196 calls)

     Parallel routines
     fft_scatt_xy :      1.44s CPU      1.55s WALL (  208216 calls)
     fft_scatt_yz :      8.33s CPU      9.18s WALL (  208216 calls)

     PWSCF        :   1m37.43s CPU   1m45.90s WALL


   This run was terminated on:  16:33:44  15Jun2026            

=------------------------------------------------------------------------------=
   JOB DONE.
=------------------------------------------------------------------------------=
