
     Program PWSCF v.7.5 starts on 15Jun2026 at 11:42:40 

     This program is part of the open-source Quantum ESPRESSO suite
     for quantum simulation of materials; please cite
         "P. Giannozzi et al., J. Phys.:Condens. Matter 21 395502 (2009);
         "P. Giannozzi et al., J. Phys.:Condens. Matter 29 465901 (2017);
         "P. Giannozzi et al., J. Chem. Phys. 152 154105 (2020);
          URL http://www.quantum-espresso.org", 
     in publications or presentations arising from this work. More details at
     http://www.quantum-espresso.org/quote

     Parallel version (MPI & OpenMP), running on       4 processor cores
     Number of MPI processes:                 4
     Threads/MPI process:                     1

     MPI processes distributed on     1 nodes
     16481 MiB available memory on the printing compute node when the environment starts

     Reading input from scf.in

     Current dimensions of program PWSCF are:
     Max number of different atomic species (ntypx) = 10
     Max number of k-points (npk) =  40000
     Max angular momentum in pseudopotentials (lmaxx) =  4
     file Mg.pbe-spnl-rrkjus_psl.1.0.0.UPF: wavefunction(s)  2P renormalized

     R & G space division:  proc/nbgrp/npool/nimage =       4
     Subspace diagonalization in iterative solution of the eigenvalue problem:
     a serial algorithm will be used


     Parallelization info
     --------------------
     sticks:   dense  smooth     PW     G-vecs:    dense   smooth      PW
     Min         311     155     49                 6969     2475     430
     Max         312     156     50                 6972     2478     431
     Sum        1247     623    197                27883     9909    1721

     Using Slab Decomposition



     bravais-lattice index     =            3
     lattice parameter (alat)  =       5.8790  a.u.
     unit-cell volume          =     101.5969 (a.u.)^3
     number of atoms/cell      =            7
     number of atomic types    =            2
     number of electrons       =        16.00
     number of Kohn-Sham states=           12
     kinetic-energy cutoff     =      80.0000  Ry
     charge density cutoff     =     640.0000  Ry
     scf convergence threshold =      1.0E-10
     mixing beta               =       0.3000
     number of iterations used =            8  plain     mixing
     Exchange-correlation= PBE
                           (   1   4   3   4   0   0   0)

     celldm(1)=   5.879000  celldm(2)=   0.000000  celldm(3)=   0.000000
     celldm(4)=   0.000000  celldm(5)=   0.000000  celldm(6)=   0.000000

     crystal axes: (cart. coord. in units of alat)
               a(1) = (   0.500000   0.500000   0.500000 )  
               a(2) = (  -0.500000   0.500000   0.500000 )  
               a(3) = (  -0.500000  -0.500000   0.500000 )  

     reciprocal axes: (cart. coord. in units 2 pi/alat)
               b(1) = (  1.000000  0.000000  1.000000 )  
               b(2) = ( -1.000000  1.000000  0.000000 )  
               b(3) = (  0.000000 -1.000000  1.000000 )  


     PseudoPot. # 1 for Mg read from file:
     ./pseudo/Mg.pbe-spnl-rrkjus_psl.1.0.0.UPF
     MD5 check sum: 9996ca2d31208a261ae42168ce6c5fae
     Pseudo is Ultrasoft + core correction, Zval = 10.0
     Generated using &quot;atomic&quot; code by A. Dal Corso  v.6.3
     Using radial grid of 1129 points,  4 beta functions with: 
                l(1) =   0
                l(2) =   0
                l(3) =   1
                l(4) =   1
     Q(r) pseudized with 0 coefficients 


     PseudoPot. # 2 for H  read from file:
     ./pseudo/H.pbe-rrkjus_psl.1.0.0.UPF
     MD5 check sum: 3f4114867bd07edc7f1424d066fc1888
     Pseudo is Ultrasoft, Zval =  1.0
     Generated using &quot;atomic&quot; code by A. Dal Corso  v.6.3MaX
     Using radial grid of  929 points,  2 beta functions with: 
                l(1) =   0
                l(2) =   0
     Q(r) pseudized with 0 coefficients 


     atomic species   valence    mass     pseudopotential
     Mg               10.00    24.30500     Mg( 1.00)
     H                 1.00     1.00800     H ( 1.00)

      6 Sym. Ops., with inversion, found



   Cartesian axes

     site n.     atom                  positions (alat units)
         1        Mg     tau(   1) = (   0.0000000   0.0000000   0.0000000  )
         2        H      tau(   2) = (  -0.1250000   0.3750000   0.3750000  )
         3        H      tau(   3) = (   0.1250000   0.1250000   0.3750000  )
         4        H      tau(   4) = (  -0.3750000  -0.1250000   0.3750000  )
         5        H      tau(   5) = (   0.1250000   0.6250000   0.6250000  )
         6        H      tau(   6) = (  -0.1250000  -0.1250000   0.6250000  )
         7        H      tau(   7) = (  -0.6250000   0.1250000   0.6250000  )

     number of k points=   690  Methfessel-Paxton smearing, width (Ry)=  0.0200

     Number of k-points >= 100: set verbosity='high' to print them.

     Dense  grid:    27883 G-vectors     FFT dimensions: (  45,  45,  45)

     Smooth grid:     9909 G-vectors     FFT dimensions: (  30,  30,  30)

     Estimated max dynamical RAM per process >      51.18 MB

     Estimated total dynamical RAM >     204.71 MB

     Check: negative core charge=   -0.000006

     Initial potential from superposition of free atoms

     starting charge      15.9990, renormalised to      16.0000
     Starting wfcs are   11 randomized atomic wfcs +    1 random wfcs

     total cpu time spent up to now is        0.7 secs

     per-process dynamical memory:    57.7 Mb

     Self-consistent Calculation

     iteration #  1     ecut=    80.00 Ry     beta= 0.30
     Davidson diagonalization with overlap
     ethr =  1.00E-02,  avg # of iterations =  4.6

     total cpu time spent up to now is        2.6 secs

     total energy              =    -132.17011943 Ry
     estimated scf accuracy    <       0.17993374 Ry

     iteration #  2     ecut=    80.00 Ry     beta= 0.30
     Davidson diagonalization with overlap
     ethr =  1.12E-03,  avg # of iterations =  1.0

     total cpu time spent up to now is        3.9 secs

     total energy              =    -132.14358437 Ry
     estimated scf accuracy    <       0.07018925 Ry

     iteration #  3     ecut=    80.00 Ry     beta= 0.30
     Davidson diagonalization with overlap
     ethr =  4.39E-04,  avg # of iterations =  1.8

     total cpu time spent up to now is        5.2 secs

     total energy              =    -132.14939833 Ry
     estimated scf accuracy    <       0.00198842 Ry

     iteration #  4     ecut=    80.00 Ry     beta= 0.30
     Davidson diagonalization with overlap
     ethr =  1.24E-05,  avg # of iterations =  3.4

     total cpu time spent up to now is        6.9 secs

     total energy              =    -132.14981694 Ry
     estimated scf accuracy    <       0.00004581 Ry

     iteration #  5     ecut=    80.00 Ry     beta= 0.30
     Davidson diagonalization with overlap
     ethr =  2.86E-07,  avg # of iterations =  2.8

     total cpu time spent up to now is        8.3 secs

     total energy              =    -132.14982199 Ry
     estimated scf accuracy    <       0.00001683 Ry

     iteration #  6     ecut=    80.00 Ry     beta= 0.30
     Davidson diagonalization with overlap
     ethr =  1.05E-07,  avg # of iterations =  1.0

     total cpu time spent up to now is        9.6 secs

     total energy              =    -132.14982281 Ry
     estimated scf accuracy    <       0.00000037 Ry

     iteration #  7     ecut=    80.00 Ry     beta= 0.30
     Davidson diagonalization with overlap
     ethr =  2.34E-09,  avg # of iterations =  3.7

     total cpu time spent up to now is       11.3 secs

     total energy              =    -132.14982293 Ry
     estimated scf accuracy    <       0.00000009 Ry

     iteration #  8     ecut=    80.00 Ry     beta= 0.30
     Davidson diagonalization with overlap
     ethr =  5.87E-10,  avg # of iterations =  1.9

     total cpu time spent up to now is       12.6 secs

     total energy              =    -132.14982294 Ry
     estimated scf accuracy    <          5.8E-09 Ry

     iteration #  9     ecut=    80.00 Ry     beta= 0.30
     Davidson diagonalization with overlap
     ethr =  3.60E-11,  avg # of iterations =  2.0

     total cpu time spent up to now is       14.0 secs

     total energy              =    -132.14982294 Ry
     estimated scf accuracy    <          1.0E-09 Ry

     iteration # 10     ecut=    80.00 Ry     beta= 0.30
     Davidson diagonalization with overlap
     ethr =  6.56E-12,  avg # of iterations =  3.0

     total cpu time spent up to now is       15.6 secs

     End of self-consistent calculation

     Number of k-points >= 100: set verbosity='high' to print the bands.

     the Fermi energy is    15.6523 ev

!    total energy              =    -132.14982294 Ry
     estimated scf accuracy    <          9.1E-12 Ry
     smearing contrib. (-TS)   =       0.00008633 Ry
     internal energy E=F+TS    =    -132.14990927 Ry

     The total energy is F=E-TS. E is the sum of the following terms:
     one-electron contribution =     -72.78022142 Ry
     hartree contribution      =      42.77806866 Ry
     xc contribution           =     -23.31611186 Ry
     ewald contribution        =     -78.83164466 Ry

     convergence has been achieved in  10 iterations

     Forces acting on atoms (cartesian axes, Ry/au):

     atom    1 type  1   force =    -0.00000000    0.00000000    0.00000000
     atom    2 type  2   force =     0.25311636   -0.08912819   -0.08369945
     atom    3 type  2   force =     0.08912819    0.08369945    0.25311636
     atom    4 type  2   force =     0.08369945    0.25311636   -0.08912819
     atom    5 type  2   force =    -0.25311636    0.08912819    0.08369945
     atom    6 type  2   force =    -0.08912819   -0.08369945   -0.25311636
     atom    7 type  2   force =    -0.08369945   -0.25311636    0.08912819

     Total force =     0.688552     Total SCF correction =     0.000000


     Computing stress (Cartesian axis) and pressure

          total   stress  (Ry/bohr**3)                   (kbar)     P=     3840.26
   0.02610553   0.00199921  -0.00199921         3840.26      294.09     -294.09
   0.00199921   0.02610553   0.00199921          294.09     3840.26      294.09
  -0.00199921   0.00199921   0.02610553         -294.09      294.09     3840.26


     Writing all to output data dir ./out/mgh6.save/ :
     XML data file, charge density, pseudopotentials, collected wavefunctions

     init_run     :      0.64s CPU      0.68s WALL (       1 calls)
     electrons    :     13.61s CPU     14.87s WALL (       1 calls)
     forces       :      0.07s CPU      0.08s WALL (       1 calls)
     stress       :      0.33s CPU      0.33s WALL (       1 calls)

     Called by init_run:
     wfcinit      :      0.43s CPU      0.48s WALL (       1 calls)
     potinit      :      0.07s CPU      0.07s WALL (       1 calls)
     hinit0       :      0.11s CPU      0.11s WALL (       1 calls)

     Called by electrons:
     c_bands      :     11.43s CPU     12.50s WALL (      10 calls)
     sum_band     :      2.13s CPU      2.31s WALL (      10 calls)
     v_of_rho     :      0.04s CPU      0.04s WALL (      11 calls)
     newd         :      0.01s CPU      0.02s WALL (      11 calls)
     mix_rho      :      0.00s CPU      0.00s WALL (      10 calls)

     Called by c_bands:
     init_us_2    :      0.37s CPU      0.40s WALL (   15870 calls)
     cegterg      :     11.10s CPU     12.15s WALL (    6900 calls)

     Called by *egterg:
     cdiaghg      :      1.30s CPU      1.41s WALL (   24323 calls)
     h_psi        :      9.13s CPU     10.00s WALL (   25013 calls)
     s_psi        :      0.12s CPU      0.13s WALL (   25013 calls)
     g_psi        :      0.10s CPU      0.11s WALL (   17423 calls)

     Called by h_psi:
     h_psi:calbec :      0.19s CPU      0.21s WALL (   25013 calls)
     vloc_psi     :      8.77s CPU      9.60s WALL (   25013 calls)
                                        0.00s GPU  (   25013 calls)
     add_vuspsi   :      0.13s CPU      0.14s WALL (   25013 calls)

     General routines
     calbec       :      0.36s CPU      0.38s WALL (   43643 calls)
     fft          :      0.06s CPU      0.06s WALL (     166 calls)
     ffts         :      0.06s CPU      0.06s WALL (      21 calls)
     fftw         :      9.66s CPU     10.57s WALL (  498094 calls)
     interpolate  :      0.06s CPU      0.06s WALL (      11 calls)

     Parallel routines

     PWSCF        :     14.81s CPU     16.17s WALL


   This run was terminated on:  11:42:56  15Jun2026            

=------------------------------------------------------------------------------=
   JOB DONE.
=------------------------------------------------------------------------------=
