
     Program PWSCF v.7.5 starts on 15Jun2026 at 14:59:19 

     This program is part of the open-source Quantum ESPRESSO suite
     for quantum simulation of materials; please cite
         "P. Giannozzi et al., J. Phys.:Condens. Matter 21 395502 (2009);
         "P. Giannozzi et al., J. Phys.:Condens. Matter 29 465901 (2017);
         "P. Giannozzi et al., J. Chem. Phys. 152 154105 (2020);
          URL http://www.quantum-espresso.org", 
     in publications or presentations arising from this work. More details at
     http://www.quantum-espresso.org/quote

     Parallel version (MPI & OpenMP), running on      16 processor cores
     Number of MPI processes:                16
     Threads/MPI process:                     1

     MPI processes distributed on     1 nodes
     83171 MiB available memory on the printing compute node when the environment starts

     Reading input from scf.in

     Current dimensions of program PWSCF are:
     Max number of different atomic species (ntypx) = 10
     Max number of k-points (npk) =  40000
     Max angular momentum in pseudopotentials (lmaxx) =  4

     R & G space division:  proc/nbgrp/npool/nimage =      16
     Subspace diagonalization in iterative solution of the eigenvalue problem:
     a serial algorithm will be used


     Parallelization info
     --------------------
     sticks:   dense  smooth     PW     G-vecs:    dense   smooth      PW
     Min         181     181     51                 4925     4925     739
     Max         182     182     52                 4926     4926     742
     Sum        2905    2905    823                78809    78809   11835

     Using Slab Decomposition



     bravais-lattice index     =            4
     lattice parameter (alat)  =      10.8044  a.u.
     unit-cell volume          =     682.6386 (a.u.)^3
     number of atoms/cell      =            6
     number of atomic types    =            3
     number of electrons       =        67.00
     number of Kohn-Sham states=           41
     kinetic-energy cutoff     =      90.0000  Ry
     charge density cutoff     =     360.0000  Ry
     scf convergence threshold =      1.0E-10
     mixing beta               =       0.4000
     number of iterations used =            8  plain     mixing
     Exchange-correlation= PBE
                           (   1   4   3   4   0   0   0)

     celldm(1)=  10.804450  celldm(2)=   0.000000  celldm(3)=   0.624960
     celldm(4)=   0.000000  celldm(5)=   0.000000  celldm(6)=   0.000000

     crystal axes: (cart. coord. in units of alat)
               a(1) = (   1.000000   0.000000   0.000000 )  
               a(2) = (  -0.500000   0.866025   0.000000 )  
               a(3) = (   0.000000   0.000000   0.624960 )  

     reciprocal axes: (cart. coord. in units 2 pi/alat)
               b(1) = (  1.000000  0.577350 -0.000000 )  
               b(2) = (  0.000000  1.154701  0.000000 )  
               b(3) = (  0.000000 -0.000000  1.600102 )  


     PseudoPot. # 1 for La read from file:
     ./pseudo/La_ONCV_PBE_sr.upf
     MD5 check sum: a50acaeba93a6b852b3e187ea6859932
     Pseudo is Norm-conserving, Zval = 11.0
     Generated using ONCVPSP code by D. R. Hamann
     Using radial grid of  602 points,  8 beta functions with: 
                l(1) =   0
                l(2) =   0
                l(3) =   1
                l(4) =   1
                l(5) =   2
                l(6) =   2
                l(7) =   3
                l(8) =   3

     PseudoPot. # 2 for Ru read from file:
     ./pseudo/Ru_ONCV_PBE_sr.upf
     MD5 check sum: 197966c748556f6a714a34a8c7eb0781
     Pseudo is Norm-conserving, Zval = 16.0
     Generated using ONCVPSP code by D. R. Hamann
     Using radial grid of  602 points,  6 beta functions with: 
                l(1) =   0
                l(2) =   0
                l(3) =   1
                l(4) =   1
                l(5) =   2
                l(6) =   2

     PseudoPot. # 3 for Si read from file:
     ./pseudo/Si_ONCV_PBE_sr.upf
     MD5 check sum: 7f029a58b69e3aa87b46a36c608bf45e
     Pseudo is Norm-conserving, Zval =  4.0
     Generated using ONCVPSP code by D. R. Hamann
     Using radial grid of  602 points,  4 beta functions with: 
                l(1) =   0
                l(2) =   0
                l(3) =   1
                l(4) =   1

     atomic species   valence    mass     pseudopotential
     La               11.00   138.90500     La( 1.00)
     Ru               16.00   101.07000     Ru( 1.00)
     Si                4.00    28.08550     Si( 1.00)

     Starting magnetic structure 
     atomic species   magnetization
     La              0.000
     Ru              0.100
     Si              0.000

     24 Sym. Ops., with inversion, found



   Cartesian axes

     site n.     atom                  positions (alat units)
         1        La     tau(   1) = (   0.0000000   0.0000000   0.0000000  )
         2        Ru     tau(   2) = (   0.5000000   0.0000000   0.3124800  )
         3        Ru     tau(   3) = (  -0.2500000   0.4330127   0.3124800  )
         4        Ru     tau(   4) = (   0.2500000   0.4330127   0.3124800  )
         5        Si     tau(   5) = (  -0.0000005   0.5773506   0.0000000  )
         6        Si     tau(   6) = (   0.5000005   0.2886748   0.0000000  )

     number of k points=   133  Methfessel-Paxton smearing, width (Ry)=  0.0200

     Number of k-points >= 100: set verbosity='high' to print them.

     Dense  grid:    78809 G-vectors     FFT dimensions: (  72,  72,  45)

     Estimated max dynamical RAM per process >     122.07 MB

     Estimated total dynamical RAM >       1.91 GB
     Generating pointlists ...
     new r_m :   0.2382 (alat units)  2.5732 (a.u.) for type    1
     new r_m :   0.1755 (alat units)  1.8960 (a.u.) for type    2
     new r_m :   0.1755 (alat units)  1.8960 (a.u.) for type    3

     Initial potential from superposition of free atoms

     starting charge      66.4235, renormalised to      67.0000
     Starting wfcs are random

     total cpu time spent up to now is        5.2 secs

     per-process dynamical memory:   125.5 Mb

     Self-consistent Calculation

     iteration #  1     ecut=    90.00 Ry     beta= 0.40
     Davidson diagonalization with overlap
     ethr =  1.00E-02,  avg # of iterations = 10.3

     Threshold (ethr) on eigenvalues was too large:
     Diagonalizing with lowered threshold

     Davidson diagonalization with overlap
     ethr =  6.53E-04,  avg # of iterations =  2.2

     total cpu time spent up to now is       61.9 secs

     total energy              =    -645.80742236 Ry
     estimated scf accuracy    <       0.44694475 Ry

     total magnetization       =     1.54 Bohr mag/cell
     absolute magnetization    =     1.85 Bohr mag/cell

     iteration #  2     ecut=    90.00 Ry     beta= 0.40
     Davidson diagonalization with overlap
     ethr =  6.67E-04,  avg # of iterations =  9.4

     total cpu time spent up to now is       84.3 secs

     total energy              =    -645.86752687 Ry
     estimated scf accuracy    <       0.23763800 Ry

     total magnetization       =     1.49 Bohr mag/cell
     absolute magnetization    =     1.91 Bohr mag/cell

     iteration #  3     ecut=    90.00 Ry     beta= 0.40
     Davidson diagonalization with overlap
     ethr =  3.55E-04,  avg # of iterations =  2.2

     total cpu time spent up to now is       98.7 secs

     total energy              =    -645.91701112 Ry
     estimated scf accuracy    <       0.05085469 Ry

     total magnetization       =     1.15 Bohr mag/cell
     absolute magnetization    =     1.54 Bohr mag/cell

     iteration #  4     ecut=    90.00 Ry     beta= 0.40
     Davidson diagonalization with overlap
     c_bands:  3 eigenvalues not converged
     c_bands:  2 eigenvalues not converged
     ethr =  7.59E-05,  avg # of iterations =  5.7

     total cpu time spent up to now is      114.8 secs

     total energy              =    -645.92793901 Ry
     estimated scf accuracy    <       0.00537207 Ry

     total magnetization       =     1.04 Bohr mag/cell
     absolute magnetization    =     1.42 Bohr mag/cell

     iteration #  5     ecut=    90.00 Ry     beta= 0.40
     Davidson diagonalization with overlap
     c_bands:  2 eigenvalues not converged
     c_bands:  1 eigenvalues not converged
     c_bands:  1 eigenvalues not converged
     c_bands:  2 eigenvalues not converged
     c_bands:  3 eigenvalues not converged
     c_bands:  3 eigenvalues not converged
     c_bands:  1 eigenvalues not converged
     c_bands:  2 eigenvalues not converged
     c_bands:  2 eigenvalues not converged
     c_bands:  1 eigenvalues not converged
     c_bands:  2 eigenvalues not converged
     c_bands:  1 eigenvalues not converged
     c_bands:  2 eigenvalues not converged
     c_bands:  3 eigenvalues not converged
     c_bands:  3 eigenvalues not converged
     c_bands:  1 eigenvalues not converged
     c_bands:  2 eigenvalues not converged
     c_bands:  1 eigenvalues not converged
     c_bands:  1 eigenvalues not converged
     c_bands:  3 eigenvalues not converged
     c_bands:  3 eigenvalues not converged
     c_bands:  1 eigenvalues not converged
     c_bands:  1 eigenvalues not converged
     c_bands:  3 eigenvalues not converged
     c_bands:  2 eigenvalues not converged
     c_bands:  1 eigenvalues not converged
     c_bands:  1 eigenvalues not converged
     c_bands:  1 eigenvalues not converged
     c_bands:  1 eigenvalues not converged
     c_bands:  1 eigenvalues not converged
     c_bands:  1 eigenvalues not converged
     c_bands:  1 eigenvalues not converged
     c_bands:  1 eigenvalues not converged
     c_bands:  3 eigenvalues not converged
     c_bands:  1 eigenvalues not converged
     c_bands:  1 eigenvalues not converged
     c_bands:  2 eigenvalues not converged
     c_bands:  1 eigenvalues not converged
     c_bands:  1 eigenvalues not converged
     c_bands:  2 eigenvalues not converged
     c_bands:  2 eigenvalues not converged
     c_bands:  1 eigenvalues not converged
     c_bands:  1 eigenvalues not converged
     c_bands:  2 eigenvalues not converged
     c_bands:  1 eigenvalues not converged
     c_bands:  1 eigenvalues not converged
     c_bands:  1 eigenvalues not converged
     c_bands:  2 eigenvalues not converged
     c_bands:  2 eigenvalues not converged
     c_bands:  1 eigenvalues not converged
     c_bands:  1 eigenvalues not converged
     c_bands:  1 eigenvalues not converged
     c_bands:  1 eigenvalues not converged
     c_bands:  1 eigenvalues not converged
     c_bands:  3 eigenvalues not converged
     c_bands:  1 eigenvalues not converged
     c_bands:  1 eigenvalues not converged
     c_bands:  1 eigenvalues not converged
     ethr =  8.02E-06,  avg # of iterations = 15.3

     total cpu time spent up to now is      147.4 secs

     total energy              =    -645.93278523 Ry
     estimated scf accuracy    <       0.00207840 Ry

     total magnetization       =     0.82 Bohr mag/cell
     absolute magnetization    =     1.15 Bohr mag/cell

     iteration #  6     ecut=    90.00 Ry     beta= 0.40
     Davidson diagonalization with overlap
     c_bands:  1 eigenvalues not converged
     c_bands:  2 eigenvalues not converged
     c_bands:  1 eigenvalues not converged
     c_bands:  2 eigenvalues not converged
     c_bands:  2 eigenvalues not converged
     c_bands:  1 eigenvalues not converged
     c_bands:  1 eigenvalues not converged
     c_bands:  3 eigenvalues not converged
     c_bands:  1 eigenvalues not converged
     c_bands:  1 eigenvalues not converged
     c_bands:  2 eigenvalues not converged
     c_bands:  3 eigenvalues not converged
     c_bands:  2 eigenvalues not converged
     c_bands:  2 eigenvalues not converged
     c_bands:  2 eigenvalues not converged
     c_bands:  1 eigenvalues not converged
     c_bands:  2 eigenvalues not converged
     c_bands:  1 eigenvalues not converged
     c_bands:  2 eigenvalues not converged
     c_bands:  1 eigenvalues not converged
     c_bands:  1 eigenvalues not converged
     c_bands:  1 eigenvalues not converged
     c_bands:  1 eigenvalues not converged
     c_bands:  1 eigenvalues not converged
     c_bands:  1 eigenvalues not converged
     c_bands:  2 eigenvalues not converged
     c_bands:  1 eigenvalues not converged
     c_bands:  2 eigenvalues not converged
     c_bands:  1 eigenvalues not converged
     c_bands:  2 eigenvalues not converged
     c_bands:  1 eigenvalues not converged
     c_bands:  2 eigenvalues not converged
     c_bands:  1 eigenvalues not converged
     c_bands:  1 eigenvalues not converged
     c_bands:  1 eigenvalues not converged
     c_bands:  1 eigenvalues not converged
     c_bands:  1 eigenvalues not converged
     c_bands:  1 eigenvalues not converged
     c_bands:  1 eigenvalues not converged
     c_bands:  1 eigenvalues not converged
     c_bands:  1 eigenvalues not converged
     c_bands:  1 eigenvalues not converged
     c_bands:  1 eigenvalues not converged
     ethr =  3.10E-06,  avg # of iterations = 11.8

     total cpu time spent up to now is      172.5 secs

     total energy              =    -645.93378572 Ry
     estimated scf accuracy    <       0.00145162 Ry

     total magnetization       =     0.64 Bohr mag/cell
     absolute magnetization    =     0.92 Bohr mag/cell

     iteration #  7     ecut=    90.00 Ry     beta= 0.40
     Davidson diagonalization with overlap
     c_bands:  2 eigenvalues not converged
     c_bands:  1 eigenvalues not converged
     c_bands:  1 eigenvalues not converged
     c_bands:  1 eigenvalues not converged
     c_bands:  1 eigenvalues not converged
     c_bands:  1 eigenvalues not converged
     c_bands:  1 eigenvalues not converged
     c_bands:  1 eigenvalues not converged
     c_bands:  1 eigenvalues not converged
     c_bands:  1 eigenvalues not converged
     c_bands:  1 eigenvalues not converged
     c_bands:  1 eigenvalues not converged
     ethr =  2.17E-06,  avg # of iterations =  5.7

     total cpu time spent up to now is      189.1 secs

     total energy              =    -645.93423741 Ry
     estimated scf accuracy    <       0.00014897 Ry

     total magnetization       =     0.57 Bohr mag/cell
     absolute magnetization    =     0.81 Bohr mag/cell

     iteration #  8     ecut=    90.00 Ry     beta= 0.40
     Davidson diagonalization with overlap
     c_bands:  1 eigenvalues not converged
     c_bands:  1 eigenvalues not converged
     c_bands:  1 eigenvalues not converged
     c_bands:  1 eigenvalues not converged
     c_bands:  1 eigenvalues not converged
     c_bands:  2 eigenvalues not converged
     ethr =  2.22E-07,  avg # of iterations =  7.1

     total cpu time spent up to now is      211.2 secs

     total energy              =    -645.93465269 Ry
     estimated scf accuracy    <       0.00005506 Ry

     total magnetization       =     0.42 Bohr mag/cell
     absolute magnetization    =     0.59 Bohr mag/cell

     iteration #  9     ecut=    90.00 Ry     beta= 0.40
     Davidson diagonalization with overlap
     c_bands:  1 eigenvalues not converged
     c_bands:  1 eigenvalues not converged
     ethr =  8.22E-08,  avg # of iterations =  6.6

     total cpu time spent up to now is      233.6 secs

     total energy              =    -645.93474521 Ry
     estimated scf accuracy    <       0.00012331 Ry

     total magnetization       =     0.32 Bohr mag/cell
     absolute magnetization    =     0.42 Bohr mag/cell

     iteration # 10     ecut=    90.00 Ry     beta= 0.40
     Davidson diagonalization with overlap
     c_bands:  1 eigenvalues not converged
     ethr =  8.22E-08,  avg # of iterations =  5.6

     total cpu time spent up to now is      255.0 secs

     total energy              =    -645.93498293 Ry
     estimated scf accuracy    <       0.00002752 Ry

     total magnetization       =     0.20 Bohr mag/cell
     absolute magnetization    =     0.25 Bohr mag/cell

     iteration # 11     ecut=    90.00 Ry     beta= 0.40
     Davidson diagonalization with overlap
     ethr =  4.11E-08,  avg # of iterations =  3.8

     total cpu time spent up to now is      271.6 secs

     total energy              =    -645.93490480 Ry
     estimated scf accuracy    <       0.00001234 Ry

     total magnetization       =     0.17 Bohr mag/cell
     absolute magnetization    =     0.21 Bohr mag/cell

     iteration # 12     ecut=    90.00 Ry     beta= 0.40
     Davidson diagonalization with overlap
     c_bands:  1 eigenvalues not converged
     c_bands:  1 eigenvalues not converged
     ethr =  1.84E-08,  avg # of iterations =  7.4

     total cpu time spent up to now is      296.0 secs

     total energy              =    -645.93503725 Ry
     estimated scf accuracy    <       0.00001243 Ry

     total magnetization       =     0.07 Bohr mag/cell
     absolute magnetization    =     0.08 Bohr mag/cell

     iteration # 13     ecut=    90.00 Ry     beta= 0.40
     Davidson diagonalization with overlap
     ethr =  1.84E-08,  avg # of iterations =  4.9

     total cpu time spent up to now is      314.7 secs

     total energy              =    -645.93506298 Ry
     estimated scf accuracy    <       0.00000090 Ry

     total magnetization       =     0.02 Bohr mag/cell
     absolute magnetization    =     0.03 Bohr mag/cell

     iteration # 14     ecut=    90.00 Ry     beta= 0.40
     Davidson diagonalization with overlap
     ethr =  1.34E-09,  avg # of iterations =  7.7

     total cpu time spent up to now is      338.3 secs

     total energy              =    -645.93506619 Ry
     estimated scf accuracy    <       0.00000033 Ry

     total magnetization       =     0.01 Bohr mag/cell
     absolute magnetization    =     0.01 Bohr mag/cell

     iteration # 15     ecut=    90.00 Ry     beta= 0.40
     Davidson diagonalization with overlap
     ethr =  4.86E-10,  avg # of iterations =  4.5

     total cpu time spent up to now is      356.7 secs

     total energy              =    -645.93506685 Ry
     estimated scf accuracy    <       0.00000002 Ry

     total magnetization       =     0.00 Bohr mag/cell
     absolute magnetization    =     0.00 Bohr mag/cell

     iteration # 16     ecut=    90.00 Ry     beta= 0.40
     Davidson diagonalization with overlap
     ethr =  3.49E-11,  avg # of iterations =  7.5

     total cpu time spent up to now is      380.9 secs

     total energy              =    -645.93506697 Ry
     estimated scf accuracy    <          9.6E-09 Ry

     total magnetization       =    -0.00 Bohr mag/cell
     absolute magnetization    =     0.00 Bohr mag/cell

     iteration # 17     ecut=    90.00 Ry     beta= 0.40
     Davidson diagonalization with overlap
     ethr =  1.43E-11,  avg # of iterations =  5.2

     total cpu time spent up to now is      400.3 secs

     total energy              =    -645.93506698 Ry
     estimated scf accuracy    <          6.4E-09 Ry

     total magnetization       =    -0.00 Bohr mag/cell
     absolute magnetization    =     0.00 Bohr mag/cell

     iteration # 18     ecut=    90.00 Ry     beta= 0.40
     Davidson diagonalization with overlap
     ethr =  9.55E-12,  avg # of iterations =  3.0

     total cpu time spent up to now is      415.7 secs

     total energy              =    -645.93506698 Ry
     estimated scf accuracy    <          9.7E-10 Ry

     total magnetization       =     0.00 Bohr mag/cell
     absolute magnetization    =     0.00 Bohr mag/cell

     iteration # 19     ecut=    90.00 Ry     beta= 0.40
     Davidson diagonalization with overlap
     ethr =  1.45E-12,  avg # of iterations =  5.4

     total cpu time spent up to now is      434.8 secs

     total energy              =    -645.93506698 Ry
     estimated scf accuracy    <          1.2E-10 Ry

     total magnetization       =    -0.00 Bohr mag/cell
     absolute magnetization    =     0.00 Bohr mag/cell

     iteration # 20     ecut=    90.00 Ry     beta= 0.40
     Davidson diagonalization with overlap
     ethr =  1.82E-13,  avg # of iterations =  6.8

     Magnetic moment per site  (integrated on atomic sphere of radius R)
     atom   1 (R=0.238)  charge=  8.6671  magn= -0.0000
     atom   2 (R=0.175)  charge= 13.3064  magn=  0.0000
     atom   3 (R=0.175)  charge= 13.3064  magn=  0.0000
     atom   4 (R=0.175)  charge= 13.3064  magn=  0.0000
     atom   5 (R=0.175)  charge=  2.0912  magn= -0.0000
     atom   6 (R=0.175)  charge=  2.0912  magn= -0.0000

     total cpu time spent up to now is      456.8 secs

     End of self-consistent calculation

     Number of k-points >= 100: set verbosity='high' to print the bands.

     the Fermi energy is    16.0669 ev

!    total energy              =    -645.93506698 Ry
     estimated scf accuracy    <          2.5E-11 Ry
     smearing contrib. (-TS)   =      -0.00013895 Ry
     internal energy E=F+TS    =    -645.93492803 Ry

     The total energy is F=E-TS. E is the sum of the following terms:
     one-electron contribution =    -228.78183855 Ry
     hartree contribution      =     148.50417073 Ry
     xc contribution           =     -73.47318005 Ry
     ewald contribution        =    -492.18408016 Ry

     total magnetization       =     0.00 Bohr mag/cell
     absolute magnetization    =     0.00 Bohr mag/cell

     convergence has been achieved in  20 iterations

     Forces acting on atoms (cartesian axes, Ry/au):

     atom    1 type  1   force =     0.00000000    0.00000000    0.00000000
     atom    2 type  2   force =     0.00000000   -0.00000000   -0.00000000
     atom    3 type  2   force =     0.00000000   -0.00000000    0.00000000
     atom    4 type  2   force =     0.00000000    0.00000000    0.00000000
     atom    5 type  3   force =    -0.00000000    0.00000000    0.00000000
     atom    6 type  3   force =     0.00000000    0.00000000    0.00000000

     Total force =     0.000000     Total SCF correction =     0.000000


     Computing stress (Cartesian axis) and pressure

          total   stress  (Ry/bohr**3)                   (kbar)     P=       -0.20
  -0.00000142   0.00000000   0.00000000           -0.21        0.00        0.00
   0.00000000  -0.00000142  -0.00000000            0.00       -0.21       -0.00
   0.00000000  -0.00000000  -0.00000128            0.00       -0.00       -0.19


     Writing all to output data dir ./out/laru3si2.save/ :
     XML data file, charge density, pseudopotentials, collected wavefunctions

     init_run     :      4.68s CPU      5.18s WALL (       1 calls)
     electrons    :    421.58s CPU    451.55s WALL (       1 calls)
     forces       :      0.98s CPU      1.11s WALL (       1 calls)
     stress       :      3.98s CPU      4.45s WALL (       1 calls)

     Called by init_run:
     wfcinit      :      4.36s CPU      4.84s WALL (       1 calls)
     potinit      :      0.03s CPU      0.03s WALL (       1 calls)
     hinit0       :      0.25s CPU      0.26s WALL (       1 calls)

     Called by electrons:
     c_bands      :    384.89s CPU    411.96s WALL (      21 calls)
     sum_band     :     36.29s CPU     39.12s WALL (      21 calls)
     v_of_rho     :      0.30s CPU      0.35s WALL (      21 calls)
     mix_rho      :      0.10s CPU      0.11s WALL (      21 calls)

     Called by c_bands:
     init_us_2    :      5.14s CPU      5.54s WALL (   11970 calls)
     cegterg      :    372.42s CPU    398.03s WALL (    5586 calls)

     Called by *egterg:
     cdiaghg      :     67.99s CPU     71.00s WALL (   42096 calls)
     h_psi        :    255.36s CPU    273.74s WALL (   42628 calls)
     g_psi        :      1.95s CPU      2.15s WALL (   36776 calls)

     Called by h_psi:
     h_psi:calbec :     20.15s CPU     21.75s WALL (   42628 calls)
     vloc_psi     :    219.12s CPU    234.44s WALL (   42628 calls)
                                        0.00s GPU  (   42628 calls)
     add_vuspsi   :     13.42s CPU     14.64s WALL (   42628 calls)

     General routines
     calbec       :     22.86s CPU     24.83s WALL (   47150 calls)
     fft          :      0.35s CPU      0.38s WALL (     410 calls)
     ffts         :      0.01s CPU      0.01s WALL (      42 calls)
     fftw         :    229.26s CPU    246.04s WALL ( 1762492 calls)

     Parallel routines

     PWSCF        :   7m12.88s CPU   7m47.06s WALL


   This run was terminated on:  15: 7: 6  15Jun2026            

=------------------------------------------------------------------------------=
   JOB DONE.
=------------------------------------------------------------------------------=
Note: The following floating-point exceptions are signalling: IEEE_DENORMAL
Note: The following floating-point exceptions are signalling: IEEE_DENORMAL
Note: The following floating-point exceptions are signalling: IEEE_DENORMAL
