
     Program PWSCF v.7.5 starts on 16Jun2026 at  3:37:21 

     This program is part of the open-source Quantum ESPRESSO suite
     for quantum simulation of materials; please cite
         "P. Giannozzi et al., J. Phys.:Condens. Matter 21 395502 (2009);
         "P. Giannozzi et al., J. Phys.:Condens. Matter 29 465901 (2017);
         "P. Giannozzi et al., J. Chem. Phys. 152 154105 (2020);
          URL http://www.quantum-espresso.org", 
     in publications or presentations arising from this work. More details at
     http://www.quantum-espresso.org/quote

     Parallel version (MPI & OpenMP), running on       6 processor cores
     Number of MPI processes:                 6
     Threads/MPI process:                     1

     MPI processes distributed on     1 nodes
     10626 MiB available memory on the printing compute node when the environment starts

     Reading input from scf.in

     Current dimensions of program PWSCF are:
     Max number of different atomic species (ntypx) = 10
     Max number of k-points (npk) =  40000
     Max angular momentum in pseudopotentials (lmaxx) =  4

     R & G space division:  proc/nbgrp/npool/nimage =       6
     Subspace diagonalization in iterative solution of the eigenvalue problem:
     a serial algorithm will be used


     Parallelization info
     --------------------
     sticks:   dense  smooth     PW     G-vecs:    dense   smooth      PW
     Min         413     413    114                13347    13347    1990
     Max         414     414    115                13348    13348    1991
     Sum        2479    2479    685                80083    80083   11941

     Using Slab Decomposition



     bravais-lattice index     =            4
     lattice parameter (alat)  =       9.9760  a.u.
     unit-cell volume          =     693.6907 (a.u.)^3
     number of atoms/cell      =            6
     number of atomic types    =            2
     number of electrons       =        92.40
     number of Kohn-Sham states=           55
     kinetic-energy cutoff     =      90.0000  Ry
     charge density cutoff     =     360.0000  Ry
     scf convergence threshold =      1.0E-10
     mixing beta               =       0.4000
     number of iterations used =            8  plain     mixing
     Exchange-correlation= PBE
                           (   1   4   3   4   0   0   0)

     celldm(1)=   9.976000  celldm(2)=   0.000000  celldm(3)=   0.806800
     celldm(4)=   0.000000  celldm(5)=   0.000000  celldm(6)=   0.000000

     crystal axes: (cart. coord. in units of alat)
               a(1) = (   1.000000   0.000000   0.000000 )  
               a(2) = (  -0.500000   0.866025   0.000000 )  
               a(3) = (   0.000000   0.000000   0.806800 )  

     reciprocal axes: (cart. coord. in units 2 pi/alat)
               b(1) = (  1.000000  0.577350 -0.000000 )  
               b(2) = (  0.000000  1.154701  0.000000 )  
               b(3) = (  0.000000 -0.000000  1.239465 )  


     PseudoPot. # 1 for Co read from file:
     ./pseudo/Co_ONCV_PBE_sr.upf
     MD5 check sum: 04640e31e65e5bce9f0417487be359f7
     Pseudo is Norm-conserving, Zval = 17.0
     Generated using ONCVPSP code by D. R. Hamann
     Using radial grid of  602 points,  6 beta functions with: 
                l(1) =   0
                l(2) =   0
                l(3) =   1
                l(4) =   1
                l(5) =   2
                l(6) =   2

     PseudoPot. # 2 for Sn read from file:
     ./pseudo/Sn_ONCV_PBE_sr.upf
     MD5 check sum: 6680f7ee4d83b53e0fcd4167fcb72813
     Pseudo is Norm-conserving, Zval = 14.0
     Generated using ONCVPSP code by D. R. Hamann
     Using radial grid of  602 points,  6 beta functions with: 
                l(1) =   0
                l(2) =   0
                l(3) =   1
                l(4) =   1
                l(5) =   2
                l(6) =   2

     atomic species   valence    mass     pseudopotential
     Co               17.00    58.93300     Co( 1.00)
     Sn               14.00   118.71000     Sn( 1.00)

     Starting magnetic structure 
     atomic species   magnetization
     Co              0.300
     Sn              0.000

     24 Sym. Ops., with inversion, found



   Cartesian axes

     site n.     atom                  positions (alat units)
         1        Co     tau(   1) = (   0.5000000   0.0000000   0.0000000  )
         2        Co     tau(   2) = (  -0.2500000   0.4330127   0.0000000  )
         3        Co     tau(   3) = (   0.2500000   0.4330127   0.0000000  )
         4        Sn     tau(   4) = (   0.0000000   0.0000000   0.0000000  )
         5        Sn     tau(   5) = (  -0.0000005   0.5773506   0.4034000  )
         6        Sn     tau(   6) = (   0.5000005   0.2886748   0.4034000  )

     number of k points=   133  Methfessel-Paxton smearing, width (Ry)=  0.0200

     Number of k-points >= 100: set verbosity='high' to print them.

     Dense  grid:    80083 G-vectors     FFT dimensions: (  64,  64,  50)

     Estimated max dynamical RAM per process >     399.53 MB

     Estimated total dynamical RAM >       2.34 GB
     Generating pointlists ...
     new r_m :   0.2046 (alat units)  2.0413 (a.u.) for type    1
     new r_m :   0.2046 (alat units)  2.0413 (a.u.) for type    2

     Initial potential from superposition of free atoms

     starting charge      92.6277, renormalised to      92.4000
     Starting wfcs are random

     total cpu time spent up to now is        7.1 secs

     per-process dynamical memory:   412.0 Mb

     Self-consistent Calculation

     iteration #  1     ecut=    90.00 Ry     beta= 0.40
     Davidson diagonalization with overlap
     ethr =  1.00E-02,  avg # of iterations = 11.0

     total cpu time spent up to now is       77.5 secs

     total energy              =   -1174.95959443 Ry
     estimated scf accuracy    <       2.32837304 Ry

     total magnetization       =     4.05 Bohr mag/cell
     absolute magnetization    =     4.97 Bohr mag/cell

     iteration #  2     ecut=    90.00 Ry     beta= 0.40
     Davidson diagonalization with overlap
     ethr =  2.52E-03,  avg # of iterations =  2.1

     total cpu time spent up to now is       97.5 secs

     total energy              =   -1175.05874695 Ry
     estimated scf accuracy    <       3.01709322 Ry

     total magnetization       =     7.27 Bohr mag/cell
     absolute magnetization    =     7.97 Bohr mag/cell

     iteration #  3     ecut=    90.00 Ry     beta= 0.40
     Davidson diagonalization with overlap
     ethr =  2.52E-03,  avg # of iterations =  2.0

     total cpu time spent up to now is      116.2 secs

     total energy              =   -1175.65777269 Ry
     estimated scf accuracy    <       0.48674403 Ry

     total magnetization       =     4.17 Bohr mag/cell
     absolute magnetization    =     5.17 Bohr mag/cell

     iteration #  4     ecut=    90.00 Ry     beta= 0.40
     Davidson diagonalization with overlap
     ethr =  5.27E-04,  avg # of iterations =  1.9

     total cpu time spent up to now is      134.4 secs

     total energy              =   -1175.72226558 Ry
     estimated scf accuracy    <       0.01946855 Ry

     total magnetization       =     3.38 Bohr mag/cell
     absolute magnetization    =     4.38 Bohr mag/cell

     iteration #  5     ecut=    90.00 Ry     beta= 0.40
     Davidson diagonalization with overlap
     ethr =  2.11E-05,  avg # of iterations =  4.6

     total cpu time spent up to now is      156.5 secs

     total energy              =   -1175.73276965 Ry
     estimated scf accuracy    <       0.00907733 Ry

     total magnetization       =     2.83 Bohr mag/cell
     absolute magnetization    =     3.79 Bohr mag/cell

     iteration #  6     ecut=    90.00 Ry     beta= 0.40
     Davidson diagonalization with overlap
     ethr =  9.82E-06,  avg # of iterations =  2.4

     total cpu time spent up to now is      175.8 secs

     total energy              =   -1175.73908850 Ry
     estimated scf accuracy    <       0.00415421 Ry

     total magnetization       =     2.29 Bohr mag/cell
     absolute magnetization    =     3.14 Bohr mag/cell

     iteration #  7     ecut=    90.00 Ry     beta= 0.40
     Davidson diagonalization with overlap
     ethr =  4.50E-06,  avg # of iterations =  3.2

     total cpu time spent up to now is      196.8 secs

     total energy              =   -1175.74632754 Ry
     estimated scf accuracy    <       0.00289744 Ry

     total magnetization       =     1.53 Bohr mag/cell
     absolute magnetization    =     2.21 Bohr mag/cell

     iteration #  8     ecut=    90.00 Ry     beta= 0.40
     Davidson diagonalization with overlap
     ethr =  3.14E-06,  avg # of iterations =  2.7

     total cpu time spent up to now is      217.1 secs

     total energy              =   -1175.75118459 Ry
     estimated scf accuracy    <       0.00242442 Ry

     total magnetization       =     0.99 Bohr mag/cell
     absolute magnetization    =     1.49 Bohr mag/cell

     iteration #  9     ecut=    90.00 Ry     beta= 0.40
     Davidson diagonalization with overlap
     ethr =  2.62E-06,  avg # of iterations =  2.0

     total cpu time spent up to now is      235.5 secs

     total energy              =   -1175.75144457 Ry
     estimated scf accuracy    <       0.00140961 Ry

     total magnetization       =     0.85 Bohr mag/cell
     absolute magnetization    =     1.25 Bohr mag/cell

     iteration # 10     ecut=    90.00 Ry     beta= 0.40
     Davidson diagonalization with overlap
     ethr =  1.53E-06,  avg # of iterations =  3.3

     total cpu time spent up to now is      259.0 secs

     total energy              =   -1175.75354837 Ry
     estimated scf accuracy    <       0.00010467 Ry

     total magnetization       =     0.63 Bohr mag/cell
     absolute magnetization    =     0.77 Bohr mag/cell

     iteration # 11     ecut=    90.00 Ry     beta= 0.40
     Davidson diagonalization with overlap
     ethr =  1.13E-07,  avg # of iterations =  2.2

     total cpu time spent up to now is      278.4 secs

     total energy              =   -1175.75362516 Ry
     estimated scf accuracy    <       0.00003851 Ry

     total magnetization       =     0.68 Bohr mag/cell
     absolute magnetization    =     0.85 Bohr mag/cell

     iteration # 12     ecut=    90.00 Ry     beta= 0.40
     Davidson diagonalization with overlap
     ethr =  4.17E-08,  avg # of iterations =  3.2

     total cpu time spent up to now is      301.2 secs

     total energy              =   -1175.75371868 Ry
     estimated scf accuracy    <       0.00001291 Ry

     total magnetization       =     0.63 Bohr mag/cell
     absolute magnetization    =     0.75 Bohr mag/cell

     iteration # 13     ecut=    90.00 Ry     beta= 0.40
     Davidson diagonalization with overlap
     ethr =  1.40E-08,  avg # of iterations =  2.0

     total cpu time spent up to now is      320.6 secs

     total energy              =   -1175.75372135 Ry
     estimated scf accuracy    <       0.00000217 Ry

     total magnetization       =     0.64 Bohr mag/cell
     absolute magnetization    =     0.75 Bohr mag/cell

     iteration # 14     ecut=    90.00 Ry     beta= 0.40
     Davidson diagonalization with overlap
     ethr =  2.35E-09,  avg # of iterations =  2.7

     total cpu time spent up to now is      341.1 secs

     total energy              =   -1175.75372324 Ry
     estimated scf accuracy    <       0.00000047 Ry

     total magnetization       =     0.63 Bohr mag/cell
     absolute magnetization    =     0.74 Bohr mag/cell

     iteration # 15     ecut=    90.00 Ry     beta= 0.40
     Davidson diagonalization with overlap
     ethr =  5.07E-10,  avg # of iterations =  2.3

     total cpu time spent up to now is      361.9 secs

     total energy              =   -1175.75372354 Ry
     estimated scf accuracy    <       0.00000006 Ry

     total magnetization       =     0.63 Bohr mag/cell
     absolute magnetization    =     0.75 Bohr mag/cell

     iteration # 16     ecut=    90.00 Ry     beta= 0.40
     Davidson diagonalization with overlap
     ethr =  6.72E-11,  avg # of iterations =  2.3

     total cpu time spent up to now is      381.7 secs

     total energy              =   -1175.75372359 Ry
     estimated scf accuracy    <          6.7E-09 Ry

     total magnetization       =     0.63 Bohr mag/cell
     absolute magnetization    =     0.74 Bohr mag/cell

     iteration # 17     ecut=    90.00 Ry     beta= 0.40
     Davidson diagonalization with overlap
     ethr =  7.23E-12,  avg # of iterations =  3.3

     total cpu time spent up to now is      404.7 secs

     total energy              =   -1175.75372360 Ry
     estimated scf accuracy    <          4.0E-09 Ry

     total magnetization       =     0.63 Bohr mag/cell
     absolute magnetization    =     0.74 Bohr mag/cell

     iteration # 18     ecut=    90.00 Ry     beta= 0.40
     Davidson diagonalization with overlap
     ethr =  4.29E-12,  avg # of iterations =  2.4

     total cpu time spent up to now is      424.8 secs

     total energy              =   -1175.75372360 Ry
     estimated scf accuracy    <          1.1E-10 Ry

     total magnetization       =     0.63 Bohr mag/cell
     absolute magnetization    =     0.74 Bohr mag/cell

     iteration # 19     ecut=    90.00 Ry     beta= 0.40
     Davidson diagonalization with overlap
     ethr =  1.14E-13,  avg # of iterations =  4.0

     Magnetic moment per site  (integrated on atomic sphere of radius R)
     atom   1 (R=0.205)  charge= 15.9222  magn=  0.2270
     atom   2 (R=0.205)  charge= 15.9222  magn=  0.2270
     atom   3 (R=0.205)  charge= 15.9222  magn=  0.2270
     atom   4 (R=0.205)  charge= 11.1534  magn= -0.0089
     atom   5 (R=0.205)  charge= 11.2078  magn= -0.0047
     atom   6 (R=0.205)  charge= 11.2078  magn= -0.0047

     total cpu time spent up to now is      449.8 secs

     End of self-consistent calculation

     Number of k-points >= 100: set verbosity='high' to print the bands.

     the Fermi energy is    16.4631 ev

!    total energy              =   -1175.75372360 Ry
     estimated scf accuracy    <          1.8E-11 Ry
     smearing contrib. (-TS)   =       0.00170738 Ry
     internal energy E=F+TS    =   -1175.75543099 Ry

     The total energy is F=E-TS. E is the sum of the following terms:
     one-electron contribution =    -590.46877033 Ry
     hartree contribution      =     347.58042579 Ry
     xc contribution           =    -126.81377626 Ry
     ewald contribution        =    -806.05331018 Ry

     total magnetization       =     0.63 Bohr mag/cell
     absolute magnetization    =     0.74 Bohr mag/cell

     convergence has been achieved in  19 iterations

     Forces acting on atoms (cartesian axes, Ry/au):

     atom    1 type  1   force =     0.00000000    0.00000000    0.00000000
     atom    2 type  1   force =     0.00000000    0.00000000    0.00000000
     atom    3 type  1   force =     0.00000000    0.00000000    0.00000000
     atom    4 type  2   force =     0.00000000    0.00000000    0.00000000
     atom    5 type  2   force =    -0.00000000   -0.00000000   -0.00000000
     atom    6 type  2   force =     0.00000000    0.00000000    0.00000000

     Total force =     0.000000     Total SCF correction =     0.000000


     Computing stress (Cartesian axis) and pressure

          total   stress  (Ry/bohr**3)                   (kbar)     P=     -188.51
  -0.00126924   0.00000000   0.00000000         -186.71        0.00        0.00
   0.00000000  -0.00126924   0.00000000            0.00     -186.71        0.00
   0.00000000   0.00000000  -0.00130595            0.00        0.00     -192.11


     Writing all to output data dir ./out/cosn.save/ :
     XML data file, charge density, pseudopotentials, collected wavefunctions

     init_run     :      6.62s CPU      7.08s WALL (       1 calls)
     electrons    :    427.71s CPU    442.73s WALL (       1 calls)
     forces       :      2.45s CPU      2.47s WALL (       1 calls)
     stress       :      8.87s CPU      8.93s WALL (       1 calls)

     Called by init_run:
     wfcinit      :      6.41s CPU      6.87s WALL (       1 calls)
     potinit      :      0.03s CPU      0.03s WALL (       1 calls)
     hinit0       :      0.11s CPU      0.11s WALL (       1 calls)

     Called by electrons:
     c_bands      :    383.89s CPU    396.71s WALL (      19 calls)
     sum_band     :     43.36s CPU     45.55s WALL (      19 calls)
     v_of_rho     :      0.36s CPU      0.37s WALL (      20 calls)
     mix_rho      :      0.10s CPU      0.10s WALL (      19 calls)

     Called by c_bands:
     init_us_2    :      7.44s CPU      7.59s WALL (   10906 calls)
     cegterg      :    366.54s CPU    379.25s WALL (    5054 calls)

     Called by *egterg:
     cdiaghg      :     29.38s CPU     29.41s WALL (   20936 calls)
     h_psi        :    251.09s CPU    263.37s WALL (   21202 calls)
     g_psi        :      2.63s CPU      2.64s WALL (   15882 calls)

     Called by h_psi:
     h_psi:calbec :     25.32s CPU     26.10s WALL (   21202 calls)
     vloc_psi     :    210.46s CPU    221.82s WALL (   21202 calls)
                                        0.00s GPU  (   21202 calls)
     add_vuspsi   :     13.47s CPU     13.53s WALL (   21202 calls)

     General routines
     calbec       :     33.57s CPU     34.42s WALL (   25724 calls)
     fft          :      0.21s CPU      0.22s WALL (     389 calls)
     ffts         :      0.01s CPU      0.01s WALL (      38 calls)
     fftw         :    231.52s CPU    244.04s WALL ( 1814962 calls)

     Parallel routines

     PWSCF        :   7m26.00s CPU   7m41.88s WALL


   This run was terminated on:   3:45: 3  16Jun2026            

=------------------------------------------------------------------------------=
   JOB DONE.
=------------------------------------------------------------------------------=
Note: The following floating-point exceptions are signalling: IEEE_DENORMAL
Note: The following floating-point exceptions are signalling: IEEE_DENORMAL
Note: The following floating-point exceptions are signalling: IEEE_DENORMAL
Note: The following floating-point exceptions are signalling: IEEE_DENORMAL
